    1C
    1UUSER                                                              
    1UDATE              26.april.2017                                   
    1UTIME              10:29:00                                        
    1UHOST                                                              
    1UPGM               CalculiX                                        
    1UVERSION           Version 2.11                             
    1UCOMPILETIME       Wed Mar 29 20:32:15 CEST 2017                    
    1UDIR                                                               
    1UDBN                                                               
    1UMAT    1SOLIDMATERIAL                                             
    2C                          1654                                     1
 -1         1-3.49250E+01 6.35000E+01 9.52500E+00
 -1         2-4.12750E+01 5.71500E+01 9.52500E+00
 -1         3-3.49250E+01 6.35000E+01-9.52500E+00
 -1         4-4.12750E+01 5.71500E+01-9.52500E+00
 -1         5-4.12750E+01-5.71500E+01 9.52500E+00
 -1         6-3.49250E+01-6.35000E+01 9.52500E+00
 -1         7-4.12750E+01-5.71500E+01-9.52500E+00
 -1         8-3.49250E+01-6.35000E+01-9.52500E+00
 -1         9 4.12750E+01 5.71500E+01 9.52500E+00
 -1        10 3.49250E+01 6.35000E+01 9.52500E+00
 -1        11 4.12750E+01 5.71500E+01-9.52500E+00
 -1        12 3.49250E+01 6.35000E+01-9.52500E+00
 -1        13 3.49250E+01-6.35000E+01 9.52500E+00
 -1        14 4.12750E+01-5.71500E+01 9.52500E+00
 -1        15 3.49250E+01-6.35000E+01-9.52500E+00
 -1        16 4.12750E+01-5.71500E+01-9.52500E+00
 -1        17-4.12750E+01 7.93750E+00 9.52500E+00
 -1        18-4.12750E+01-7.93750E+00 9.52500E+00
 -1        19 4.12750E+01 2.54000E+01 9.52500E+00
 -1        20 4.12750E+01 2.54000E+01 2.69824E+01
 -1        21 4.12750E+01-2.54000E+01 2.69824E+01
 -1        22 4.12750E+01-2.54000E+01 9.52500E+00
 -1        23 2.22250E+01 7.93750E+00 9.52500E+00
 -1        24 2.22250E+01 2.54000E+01 9.52500E+00
 -1        25 2.22250E+01-2.54000E+01 9.52500E+00
 -1        26 2.22250E+01-7.93750E+00 9.52500E+00
 -1        27 5.71500E+01 2.24372E+01 6.19074E+01
 -1        28 4.88344E+01 7.93750E+00 6.09030E+01
 -1        29 5.71500E+01 2.54000E+01 6.19074E+01
 -1        30 2.22250E+01 2.54000E+01 2.69824E+01
 -1        31 2.22250E+01 7.93750E+00 2.69824E+01
 -1        32 4.88344E+01-7.93750E+00 6.09030E+01
 -1        33 5.71500E+01-2.24372E+01 6.19074E+01
 -1        34 2.22250E+01-7.93750E+00 2.69824E+01
 -1        35 2.22250E+01-2.54000E+01 2.69824E+01
 -1        36 5.71500E+01-2.54000E+01 6.19074E+01
 -1        37 1.11125E+02 0.00000E+00 6.66750E+01
 -1        38 1.11125E+02 0.00000E+00 3.81000E+01
 -1        39 5.71500E+01-2.24372E+01 4.28574E+01
 -1        40 5.71500E+01 2.24372E+01 4.28574E+01
 -1        41 6.05894E+01 2.54000E+01 4.28574E+01
 -1        42 6.05894E+01 2.54000E+01 6.19074E+01
 -1        43 4.88344E+01 7.93750E+00 6.21517E+01
 -1        44 4.88344E+01-7.93750E+00 6.21517E+01
 -1        45 6.05894E+01-2.54000E+01 6.19074E+01
 -1        46 6.05894E+01-2.54000E+01 4.28574E+01
 -1        47 5.71500E+01 2.54000E+01 4.28574E+01
 -1        48 5.71500E+01-2.54000E+01 4.28574E+01
 -1        49-3.94151E+01 6.16401E+01 9.52500E+00
 -1        50-3.73550E+01 6.30166E+01 9.52500E+00
 -1        51-4.07916E+01 5.95800E+01 9.52500E+00
 -1        52-3.49250E+01 6.35000E+01-3.55271E-15
 -1        53-3.94151E+01 6.16401E+01-9.52500E+00
 -1        54-3.73550E+01 6.30166E+01-9.52500E+00
 -1        55-4.07916E+01 5.95800E+01-9.52500E+00
 -1        56-4.12750E+01 5.71500E+01-5.10703E-01
 -1        57-3.94151E+01-6.16401E+01 9.52500E+00
 -1        58-4.07916E+01-5.95800E+01 9.52500E+00
 -1        59-3.73550E+01-6.30166E+01 9.52500E+00
 -1        60-4.12750E+01-5.71500E+01 0.00000E+00
 -1        61-3.94151E+01-6.16401E+01-9.52500E+00
 -1        62-4.07916E+01-5.95800E+01-9.52500E+00
 -1        63-3.73550E+01-6.30166E+01-9.52500E+00
 -1        64-3.49250E+01-6.35000E+01 0.00000E+00
 -1        65 3.94151E+01 6.16401E+01 9.52500E+00
 -1        66 4.07916E+01 5.95800E+01 9.52500E+00
 -1        67 3.73550E+01 6.30166E+01 9.52500E+00
 -1        68 4.12750E+01 5.71500E+01 0.00000E+00
 -1        69 3.94151E+01 6.16401E+01-9.52500E+00
 -1        70 4.07916E+01 5.95800E+01-9.52500E+00
 -1        71 3.73550E+01 6.30166E+01-9.52500E+00
 -1        72 3.49250E+01 6.35000E+01 0.00000E+00
 -1        73 3.94151E+01-6.16401E+01 9.52500E+00
 -1        74 3.73550E+01-6.30166E+01 9.52500E+00
 -1        75 4.07916E+01-5.95800E+01 9.52500E+00
 -1        76 3.49250E+01-6.35000E+01-3.55271E-15
 -1        77 3.94151E+01-6.16401E+01-9.52500E+00
 -1        78 3.73550E+01-6.30166E+01-9.52500E+00
 -1        79 4.07916E+01-5.95800E+01-9.52500E+00
 -1        80 4.12750E+01-5.71500E+01-4.44089E-01
 -1        81-1.74625E+01 6.35000E+01 9.52500E+00
 -1        82 3.43088E-14 6.35000E+01 9.52500E+00
 -1        83 1.74625E+01 6.35000E+01 9.52500E+00
 -1        84-2.61938E+01 6.35000E+01 9.52500E+00
 -1        85-8.73125E+00 6.35000E+01 9.52500E+00
 -1        86 8.73125E+00 6.35000E+01 9.52500E+00
 -1        87 2.61938E+01 6.35000E+01 9.52500E+00
 -1        88-1.74625E+01 6.35000E+01-9.52500E+00
 -1        89 4.23456E-14 6.35000E+01-9.52500E+00
 -1        90 1.74625E+01 6.35000E+01-9.52500E+00
 -1        91-2.61938E+01 6.35000E+01-9.52500E+00
 -1        92-8.73125E+00 6.35000E+01-9.52500E+00
 -1        93 8.73125E+00 6.35000E+01-9.52500E+00
 -1        94 2.61938E+01 6.35000E+01-9.52500E+00
 -1        95-1.74625E+01-6.35000E+01-9.52500E+00
 -1        96 4.23456E-14-6.35000E+01-9.52500E+00
 -1        97 1.74625E+01-6.35000E+01-9.52500E+00
 -1        98-2.61938E+01-6.35000E+01-9.52500E+00
 -1        99-8.73125E+00-6.35000E+01-9.52500E+00
 -1       100 8.73125E+00-6.35000E+01-9.52500E+00
 -1       101 2.61938E+01-6.35000E+01-9.52500E+00
 -1       102-1.74625E+01-6.35000E+01 9.52500E+00
 -1       103 3.43088E-14-6.35000E+01 9.52500E+00
 -1       104 1.74625E+01-6.35000E+01 9.52500E+00
 -1       105-2.61938E+01-6.35000E+01 9.52500E+00
 -1       106-8.73125E+00-6.35000E+01 9.52500E+00
 -1       107 8.73125E+00-6.35000E+01 9.52500E+00
 -1       108 2.61938E+01-6.35000E+01 9.52500E+00
 -1       109 4.12750E+01-3.81000E+01-9.52500E+00
 -1       110 4.12750E+01-1.90500E+01-9.52500E+00
 -1       111 4.12750E+01 7.10543E-15-9.52500E+00
 -1       112 4.12750E+01 1.90500E+01-9.52500E+00
 -1       113 4.12750E+01 3.81000E+01-9.52500E+00
 -1       114 4.12750E+01-4.76250E+01-9.52500E+00
 -1       115 4.12750E+01-2.85750E+01-9.52500E+00
 -1       116 4.12750E+01-9.52500E+00-9.52500E+00
 -1       117 4.12750E+01 9.52500E+00-9.52500E+00
 -1       118 4.12750E+01 2.85750E+01-9.52500E+00
 -1       119 4.12750E+01 4.76250E+01-9.52500E+00
 -1       120-4.12750E+01-3.81000E+01-9.52500E+00
 -1       121-4.12750E+01-1.90500E+01-9.52500E+00
 -1       122-4.12750E+01 7.10543E-15-9.52500E+00
 -1       123-4.12750E+01 1.90500E+01-9.52500E+00
 -1       124-4.12750E+01 3.81000E+01-9.52500E+00
 -1       125-4.12750E+01-4.76250E+01-9.52500E+00
 -1       126-4.12750E+01-2.85750E+01-9.52500E+00
 -1       127-4.12750E+01-9.52500E+00-9.52500E+00
 -1       128-4.12750E+01 9.52500E+00-9.52500E+00
 -1       129-4.12750E+01 2.85750E+01-9.52500E+00
 -1       130-4.12750E+01 4.76250E+01-9.52500E+00
 -1       131-4.12750E+01 2.43417E+01 9.52500E+00
 -1       132-4.12750E+01 4.07458E+01 9.52500E+00
 -1       133-4.12750E+01 1.61396E+01 9.52500E+00
 -1       134-4.12750E+01 3.25438E+01 9.52500E+00
 -1       135-4.12750E+01 4.89479E+01 9.52500E+00
 -1       136-4.12750E+01-4.07458E+01 9.52500E+00
 -1       137-4.12750E+01-2.43417E+01 9.52500E+00
 -1       138-4.12750E+01-4.89479E+01 9.52500E+00
 -1       139-4.12750E+01-3.25438E+01 9.52500E+00
 -1       140-4.12750E+01-1.61396E+01 9.52500E+00
 -1       141-4.12750E+01 0.00000E+00 9.52500E+00
 -1       142 4.12750E+01 4.12750E+01 9.52500E+00
 -1       143 4.12750E+01 3.33375E+01 9.52500E+00
 -1       144 4.12750E+01 4.92125E+01 9.52500E+00
 -1       145 4.12750E+01 2.54000E+01 1.82537E+01
 -1       146 4.12750E+01-8.46667E+00 2.69824E+01
 -1       147 4.12750E+01 8.46667E+00 2.69824E+01
 -1       148 4.12750E+01-1.69333E+01 2.69824E+01
 -1       149 4.12750E+01 3.55271E-14 2.69824E+01
 -1       150 4.12750E+01 1.69333E+01 2.69824E+01
 -1       151 4.12750E+01-2.54000E+01 1.82537E+01
 -1       152 4.12750E+01-4.12750E+01 9.52500E+00
 -1       153 4.12750E+01-4.92125E+01 9.52500E+00
 -1       154 4.12750E+01-3.33375E+01 9.52500E+00
 -1       155-2.01083E+01 7.93750E+00 9.52500E+00
 -1       156 1.05833E+00 7.93750E+00 9.52500E+00
 -1       157-3.06917E+01 7.93750E+00 9.52500E+00
 -1       158-9.52500E+00 7.93750E+00 9.52500E+00
 -1       159 1.16417E+01 7.93750E+00 9.52500E+00
 -1       160 2.22250E+01 1.66688E+01 9.52500E+00
 -1       161 3.17500E+01 2.54000E+01 9.52500E+00
 -1       162 3.17500E+01-2.54000E+01 9.52500E+00
 -1       163 2.22250E+01-1.66688E+01 9.52500E+00
 -1       164-2.01083E+01-7.93750E+00 9.52500E+00
 -1       165 1.05833E+00-7.93750E+00 9.52500E+00
 -1       166-3.06917E+01-7.93750E+00 9.52500E+00
 -1       167-9.52500E+00-7.93750E+00 9.52500E+00
 -1       168 1.16417E+01-7.93750E+00 9.52500E+00
 -1       169 5.20146E+01 1.57407E+01 6.15278E+01
 -1       170 5.43561E+01 1.92582E+01 6.17955E+01
 -1       171 5.01640E+01 1.19463E+01 6.12016E+01
 -1       172 5.71500E+01 2.39186E+01 6.19074E+01
 -1       173 2.69041E+01 2.54000E+01 4.44449E+01
 -1       174 3.96875E+01 2.54000E+01 5.72284E+01
 -1       175 2.34150E+01 2.54000E+01 3.60217E+01
 -1       176 3.24543E+01 2.54000E+01 5.16781E+01
 -1       177 4.81107E+01 2.54000E+01 6.07174E+01
 -1       178 2.22250E+01 1.66688E+01 2.69824E+01
 -1       179 2.56032E+01 7.93750E+00 4.19677E+01
 -1       180 3.50844E+01 7.93750E+00 5.40539E+01
 -1       181 2.30800E+01 7.93750E+00 3.46631E+01
 -1       182 2.96711E+01 7.93750E+00 4.85385E+01
 -1       183 4.15782E+01 7.93750E+00 5.82438E+01
 -1       184 5.20146E+01-1.57407E+01 6.15278E+01
 -1       185 5.01640E+01-1.19463E+01 6.12016E+01
 -1       186 5.43561E+01-1.92582E+01 6.17955E+01
 -1       187 2.56032E+01-7.93750E+00 4.19677E+01
 -1       188 3.50844E+01-7.93750E+00 5.40539E+01
 -1       189 2.30800E+01-7.93750E+00 3.46631E+01
 -1       190 2.96711E+01-7.93750E+00 4.85385E+01
 -1       191 4.15782E+01-7.93750E+00 5.82438E+01
 -1       192 2.22250E+01-1.66688E+01 2.69824E+01
 -1       193 2.69041E+01-2.54000E+01 4.44449E+01
 -1       194 3.96875E+01-2.54000E+01 5.72284E+01
 -1       195 2.34150E+01-2.54000E+01 3.60217E+01
 -1       196 3.24543E+01-2.54000E+01 5.16781E+01
 -1       197 4.81107E+01-2.54000E+01 6.07174E+01
 -1       198 5.71500E+01-2.39186E+01 6.19074E+01
 -1       199 1.05080E+02 1.86040E+01 6.66750E+01
 -1       200 8.92547E+01 3.01019E+01 6.66750E+01
 -1       201 6.96933E+01 3.01019E+01 6.66750E+01
 -1       202 5.38677E+01 1.86040E+01 6.66750E+01
 -1       203 4.78229E+01-6.64033E-01 6.66750E+01
 -1       204 5.38677E+01-1.86040E+01 6.66750E+01
 -1       205 6.96933E+01-3.01019E+01 6.66750E+01
 -1       206 8.92547E+01-3.01019E+01 6.66750E+01
 -1       207 1.05080E+02-1.86040E+01 6.66750E+01
 -1       208 1.09576E+02 9.78071E+00 6.66750E+01
 -1       209 9.80780E+01 2.56062E+01 6.66750E+01
 -1       210 7.94740E+01 3.16510E+01 6.66750E+01
 -1       211 6.08699E+01 2.56062E+01 6.66750E+01
 -1       212 4.93720E+01 9.78071E+00 6.66750E+01
 -1       213 4.93720E+01-9.78071E+00 6.66750E+01
 -1       214 6.08699E+01-2.56062E+01 6.66750E+01
 -1       215 7.94740E+01-3.16510E+01 6.66750E+01
 -1       216 9.80780E+01-2.56062E+01 6.66750E+01
 -1       217 1.09576E+02-9.78071E+00 6.66750E+01
 -1       218 1.11125E+02 0.00000E+00 5.23875E+01
 -1       219 1.11125E+02 0.00000E+00 5.95312E+01
 -1       220 1.11125E+02 0.00000E+00 4.52438E+01
 -1       221 1.05080E+02 1.86040E+01 3.81000E+01
 -1       222 8.92547E+01 3.01019E+01 3.81000E+01
 -1       223 6.96933E+01 3.01019E+01 3.81000E+01
 -1       224 5.38677E+01 1.86040E+01 3.81000E+01
 -1       225 4.78229E+01-6.64033E-01 3.81000E+01
 -1       226 5.38677E+01-1.86040E+01 3.81000E+01
 -1       227 6.96933E+01-3.01019E+01 3.81000E+01
 -1       228 8.92547E+01-3.01019E+01 3.81000E+01
 -1       229 1.05080E+02-1.86040E+01 3.81000E+01
 -1       230 1.09576E+02 9.78071E+00 3.81000E+01
 -1       231 9.80780E+01 2.56062E+01 3.81000E+01
 -1       232 7.94740E+01 3.16510E+01 3.81000E+01
 -1       233 6.08699E+01 2.56062E+01 3.81000E+01
 -1       234 4.93720E+01 9.78071E+00 3.81000E+01
 -1       235 4.93720E+01-9.78071E+00 3.81000E+01
 -1       236 6.08699E+01-2.56062E+01 3.81000E+01
 -1       237 7.94740E+01-3.16510E+01 3.81000E+01
 -1       238 9.80780E+01-2.56062E+01 3.81000E+01
 -1       239 1.09576E+02-9.78071E+00 3.81000E+01
 -1       240 4.89171E+01 8.24988E+00 4.05557E+01
 -1       241 4.89170E+01-8.24997E+00 4.05557E+01
 -1       242 5.20788E+01 1.58521E+01 4.20256E+01
 -1       243 4.78229E+01-1.07225E-04 3.98285E+01
 -1       244 5.20783E+01-1.58522E+01 4.20258E+01
 -1       245 5.88165E+01 2.39804E+01 4.28574E+01
 -1       246 5.96902E+01 2.47061E+01 4.28574E+01
 -1       247 5.79694E+01 2.32237E+01 4.28574E+01
 -1       248 6.05894E+01 2.54000E+01 5.23824E+01
 -1       249 5.88165E+01 2.39804E+01 6.19074E+01
 -1       250 5.96902E+01 2.47061E+01 6.19074E+01
 -1       251 5.79694E+01 2.32237E+01 6.19074E+01
 -1       252 4.88344E+01 7.93750E+00 6.15274E+01
 -1       253 4.78229E+01 2.72988E-06 6.21000E+01
 -1       254 4.80768E+01 4.00091E+00 6.21144E+01
 -1       255 4.80768E+01-4.00092E+00 6.21144E+01
 -1       256 4.88344E+01-7.93750E+00 6.15274E+01
 -1       257 5.88165E+01-2.39804E+01 6.19074E+01
 -1       258 5.79694E+01-2.32237E+01 6.19074E+01
 -1       259 5.96902E+01-2.47061E+01 6.19074E+01
 -1       260 6.05894E+01-2.54000E+01 5.23824E+01
 -1       261 5.88165E+01-2.39804E+01 4.28574E+01
 -1       262 5.79694E+01-2.32237E+01 4.28574E+01
 -1       263 5.96902E+01-2.47061E+01 4.28574E+01
 -1       264 5.88697E+01 2.54000E+01 6.19074E+01
 -1       265 5.88697E+01 2.54000E+01 4.28574E+01
 -1       266 5.71500E+01 2.39186E+01 4.28574E+01
 -1       267 5.88697E+01-2.54000E+01 6.19074E+01
 -1       268-3.18245E+01 7.93750E+00 2.48906E+01
 -1       269-1.83269E+01 7.93750E+00 3.69749E+01
 -1       270-2.92121E+00 7.93750E+00 4.65439E+01
 -1       271 1.36015E+01 7.93750E+00 5.40317E+01
 -1       272 3.09136E+01 7.93750E+00 5.94454E+01
 -1       273-3.72908E+01 7.93750E+00 1.76583E+01
 -1       274-2.53984E+01 7.93750E+00 3.12915E+01
 -1       275-1.07965E+01 7.93750E+00 4.20366E+01
 -1       276 5.22709E+00 7.93750E+00 5.05372E+01
 -1       277 2.21709E+01 7.93750E+00 5.70161E+01
 -1       278 3.98111E+01 7.93750E+00 6.12223E+01
 -1       279-3.18245E+01-7.93750E+00 2.48906E+01
 -1       280-1.83269E+01-7.93750E+00 3.69749E+01
 -1       281-2.92121E+00-7.93750E+00 4.65439E+01
 -1       282 1.36015E+01-7.93750E+00 5.40317E+01
 -1       283 3.09136E+01-7.93750E+00 5.94454E+01
 -1       284-3.72908E+01-7.93750E+00 1.76583E+01
 -1       285-2.53984E+01-7.93750E+00 3.12915E+01
 -1       286-1.07965E+01-7.93750E+00 4.20366E+01
 -1       287 5.22709E+00-7.93750E+00 5.05372E+01
 -1       288 2.21709E+01-7.93750E+00 5.70161E+01
 -1       289 3.98111E+01-7.93750E+00 6.12223E+01
 -1       290 4.59247E+01 2.54000E+01 3.82077E+01
 -1       291 4.24834E+01 2.54000E+01 3.30575E+01
 -1       292 5.10749E+01 2.54000E+01 4.16490E+01
 -1       293 4.59247E+01-2.54000E+01 3.82077E+01
 -1       294 4.24834E+01-2.54000E+01 3.30575E+01
 -1       295 5.10749E+01-2.54000E+01 4.16490E+01
 -1       296 5.71500E+01-2.39186E+01 4.28574E+01
 -1       297 5.88697E+01-2.54000E+01 4.28574E+01
 -1       298 2.22250E+01-2.54000E+01 1.82537E+01
 -1       299 2.22250E+01 2.54000E+01 1.82537E+01
 -1       300 2.22250E+01 7.93750E+00 1.82537E+01
 -1       301 2.22250E+01-7.93750E+00 1.82537E+01
 -1       302-3.73550E+01 6.30166E+01 0.00000E+00
 -1       303-3.94151E+01 6.16401E+01-8.88178E-01
 -1       304-4.07916E+01 5.95800E+01-1.11022E-01
 -1       305-4.07916E+01-5.95800E+01-3.55271E-15
 -1       306-3.73550E+01-6.30166E+01 0.00000E+00
 -1       307-3.94151E+01-6.16401E+01 0.00000E+00
 -1       308 4.07916E+01 5.95800E+01 3.55271E-15
 -1       309 3.94151E+01 6.16401E+01 0.00000E+00
 -1       310 3.73550E+01 6.30166E+01 0.00000E+00
 -1       311 3.73550E+01-6.30166E+01 8.88178E-16
 -1       312 4.07916E+01-5.95800E+01 2.22045E-16
 -1       313 3.94151E+01-6.16401E+01 8.88178E-16
 -1       314 8.73125E+00 6.35000E+01 3.55271E-15
 -1       315-8.73125E+00 6.35000E+01 3.55271E-15
 -1       316 2.52846E+01 6.35000E+01 0.00000E+00
 -1       317-2.52846E+01 6.35000E+01 0.00000E+00
 -1       318-3.01048E+01 6.35000E+01-4.76250E+00
 -1       319-3.01048E+01 6.35000E+01 4.76250E+00
 -1       320-2.13736E+01 6.35000E+01 4.76250E+00
 -1       321-2.13736E+01 6.35000E+01-4.76250E+00
 -1       322 3.01048E+01 6.35000E+01-4.76250E+00
 -1       323 3.01048E+01 6.35000E+01 4.76250E+00
 -1       324 2.13736E+01 6.35000E+01 4.76250E+00
 -1       325 2.13736E+01 6.35000E+01-4.76250E+00
 -1       326-4.36562E+00 6.35000E+01 4.76250E+00
 -1       327-1.30969E+01 6.35000E+01 4.76250E+00
 -1       328-1.70079E+01 6.35000E+01 3.55271E-15
 -1       329 1.30969E+01 6.35000E+01 4.76250E+00
 -1       330 4.36562E+00 6.35000E+01 4.76250E+00
 -1       331 2.84217E-14 6.35000E+01 3.55271E-15
 -1       332 1.70079E+01 6.35000E+01 3.55271E-15
 -1       333-4.36562E+00 6.35000E+01-4.76250E+00
 -1       334-1.30969E+01 6.35000E+01-4.76250E+00
 -1       335 1.30969E+01 6.35000E+01-4.76250E+00
 -1       336 4.36562E+00 6.35000E+01-4.76250E+00
 -1       337-8.73125E+00-6.35000E+01 0.00000E+00
 -1       338 8.73125E+00-6.35000E+01 3.55271E-15
 -1       339 2.52846E+01-6.35000E+01-3.55271E-15
 -1       340-2.52846E+01-6.35000E+01 0.00000E+00
 -1       341-3.01048E+01-6.35000E+01-4.76250E+00
 -1       342-3.01048E+01-6.35000E+01 4.76250E+00
 -1       343-2.13736E+01-6.35000E+01 4.76250E+00
 -1       344-2.13736E+01-6.35000E+01-4.76250E+00
 -1       345 3.01048E+01-6.35000E+01 4.76250E+00
 -1       346 3.01048E+01-6.35000E+01-4.76250E+00
 -1       347 2.13736E+01-6.35000E+01 4.76250E+00
 -1       348 2.13736E+01-6.35000E+01-4.76250E+00
 -1       349-4.36562E+00-6.35000E+01-4.76250E+00
 -1       350-1.30969E+01-6.35000E+01-4.76250E+00
 -1       351-1.70079E+01-6.35000E+01 0.00000E+00
 -1       352 1.30969E+01-6.35000E+01-4.76250E+00
 -1       353 4.36562E+00-6.35000E+01-4.76250E+00
 -1       354 2.84217E-14-6.35000E+01 3.55271E-15
 -1       355 1.70079E+01-6.35000E+01 0.00000E+00
 -1       356-1.30969E+01-6.35000E+01 4.76250E+00
 -1       357-4.36562E+00-6.35000E+01 4.76250E+00
 -1       358 4.36562E+00-6.35000E+01 4.76250E+00
 -1       359 1.30969E+01-6.35000E+01 4.76250E+00
 -1       360-2.96695E+00 2.32323E+01-9.52500E+00
 -1       361 2.94003E+00-2.34775E+01-9.52500E+00
 -1       362 2.30520E+01 4.59414E+01-9.52500E+00
 -1       363-2.30520E+01-4.59414E+01-9.52500E+00
 -1       364-2.38230E+01 4.98446E+01-9.52500E+00
 -1       365 2.38230E+01-4.98446E+01-9.52500E+00
 -1       366 1.27999E+01-2.79918E-01-9.52500E+00
 -1       367-1.28538E+01-2.10602E-01-9.52500E+00
 -1       368-3.38268E+01-5.60303E+01-9.52500E+00
 -1       369-3.42324E+01 5.68148E+01-9.52500E+00
 -1       370 3.42324E+01-5.68148E+01-9.52500E+00
 -1       371 3.38268E+01 5.60303E+01-9.52500E+00
 -1       372-6.71794E+00 4.44320E+01-9.52500E+00
 -1       373 6.71409E+00-4.44670E+01-9.52500E+00
 -1       374 2.40447E+01-3.10858E+01-9.52500E+00
 -1       375-2.40486E+01 3.10508E+01-9.52500E+00
 -1       376 2.72357E+01 3.01362E+01-9.52500E+00
 -1       377-2.72357E+01-3.01362E+01-9.52500E+00
 -1       378 3.33329E+01 4.54716E+01-9.52500E+00
 -1       379-3.44077E+01 4.68872E+01-9.52500E+00
 -1       380 3.44072E+01-4.68922E+01-9.52500E+00
 -1       381-3.33329E+01-4.54716E+01-9.52500E+00
 -1       382 1.13680E+01 5.20035E+01-9.52500E+00
 -1       383-1.13686E+01-5.20093E+01-9.52500E+00
 -1       384-2.76107E+01 5.84149E+01-9.52500E+00
 -1       385-2.41270E+01-5.61962E+01-9.52500E+00
 -1       386 2.41269E+01 5.61950E+01-9.52500E+00
 -1       387 2.76107E+01-5.84149E+01-9.52500E+00
 -1       388-2.62346E+01 1.19793E+01-9.52500E+00
 -1       389 2.62346E+01-1.19793E+01-9.52500E+00
 -1       390 2.68423E+01 8.53795E+00-9.52500E+00
 -1       391-2.68513E+01-8.61970E+00-9.52500E+00
 -1       392-4.90855E-01 7.25902E+00-9.52500E+00
 -1       393 1.07007E+01 3.50077E+01-9.52500E+00
 -1       394-1.07060E+01-3.50554E+01-9.52500E+00
 -1       395 1.23535E+01 1.73155E+01-9.52500E+00
 -1       396-1.24780E+01-1.75218E+01-9.52500E+00
 -1       397-1.33189E+01 1.46621E+01-9.52500E+00
 -1       398 1.31715E+01-1.48907E+01-9.52500E+00
 -1       399 5.14801E-01-8.18692E+00-9.52500E+00
 -1       400-3.68237E+01 5.92275E+01-9.52500E+00
 -1       401-3.45787E+01 6.01574E+01-9.52500E+00
 -1       402-2.25366E+01 6.09574E+01-9.52500E+00
 -1       403-3.12679E+01 6.09574E+01-9.52500E+00
 -1       404-3.09215E+01 5.76149E+01-9.52500E+00
 -1       405-3.77537E+01 5.69824E+01-9.52500E+00
 -1       406-3.78414E+01 4.24936E+01-9.52500E+00
 -1       407-3.78414E+01 5.20186E+01-9.52500E+00
 -1       408-3.43200E+01 5.18510E+01-9.52500E+00
 -1       409-3.66210E+01-5.88352E+01-9.52500E+00
 -1       410-3.75509E+01-5.65901E+01-9.52500E+00
 -1       411-3.73040E+01-4.17858E+01-9.52500E+00
 -1       412-3.73040E+01-5.13108E+01-9.52500E+00
 -1       413-3.35799E+01-5.07509E+01-9.52500E+00
 -1       414-3.43759E+01-5.97651E+01-9.52500E+00
 -1       415-2.07947E+01-5.98481E+01-9.52500E+00
 -1       416-2.95260E+01-5.98481E+01-9.52500E+00
 -1       417-2.89769E+01-5.61132E+01-9.52500E+00
 -1       418 3.66210E+01 5.88352E+01-9.52500E+00
 -1       419 3.75509E+01 5.65901E+01-9.52500E+00
 -1       420 3.73040E+01 4.17858E+01-9.52500E+00
 -1       421 3.73040E+01 5.13108E+01-9.52500E+00
 -1       422 3.35799E+01 5.07509E+01-9.52500E+00
 -1       423 3.43759E+01 5.97651E+01-9.52500E+00
 -1       424 2.07947E+01 5.98475E+01-9.52500E+00
 -1       425 2.95259E+01 5.98475E+01-9.52500E+00
 -1       426 2.89768E+01 5.61126E+01-9.52500E+00
 -1       427 3.68237E+01-5.92275E+01-9.52500E+00
 -1       428 3.45787E+01-6.01574E+01-9.52500E+00
 -1       429 2.25366E+01-6.09574E+01-9.52500E+00
 -1       430 3.12679E+01-6.09574E+01-9.52500E+00
 -1       431 3.09215E+01-5.76149E+01-9.52500E+00
 -1       432 3.77537E+01-5.69824E+01-9.52500E+00
 -1       433 3.78411E+01-4.24961E+01-9.52500E+00
 -1       434 3.78411E+01-5.20211E+01-9.52500E+00
 -1       435 3.43198E+01-5.18535E+01-9.52500E+00
 -1       436-3.35897E+00 5.39660E+01-9.52500E+00
 -1       437-1.20902E+01 5.39660E+01-9.52500E+00
 -1       438-1.52705E+01 4.71383E+01-9.52500E+00
 -1       439-2.06427E+01 5.66723E+01-9.52500E+00
 -1       440-2.57169E+01 5.41297E+01-9.52500E+00
 -1       441 1.44153E+01 5.77518E+01-9.52500E+00
 -1       442 5.68400E+00 5.77518E+01-9.52500E+00
 -1       443 2.32503E+00 4.82177E+01-9.52500E+00
 -1       444 1.77474E+01 5.40993E+01-9.52500E+00
 -1       445-5.68432E+00-5.77547E+01-9.52500E+00
 -1       446-1.44156E+01-5.77547E+01-9.52500E+00
 -1       447-1.77478E+01-5.41028E+01-9.52500E+00
 -1       448 1.20883E+01-5.39835E+01-9.52500E+00
 -1       449 3.35705E+00-5.39835E+01-9.52500E+00
 -1       450-2.32728E+00-4.82382E+01-9.52500E+00
 -1       451 1.52685E+01-4.71558E+01-9.52500E+00
 -1       452 2.06427E+01-5.66723E+01-9.52500E+00
 -1       453 2.57169E+01-5.41297E+01-9.52500E+00
 -1       454 3.26599E+01-2.50679E+01-9.52500E+00
 -1       455 3.26599E+01-3.45929E+01-9.52500E+00
 -1       456 2.92259E+01-3.89890E+01-9.52500E+00
 -1       457 3.37548E+01-5.98965E+00-9.52500E+00
 -1       458 3.37548E+01-1.55147E+01-9.52500E+00
 -1       459 2.51396E+01-2.15325E+01-9.52500E+00
 -1       460 3.40586E+01 1.37940E+01-9.52500E+00
 -1       461 3.40586E+01 4.26897E+00-9.52500E+00
 -1       462 2.65384E+01-1.72068E+00-9.52500E+00
 -1       463 3.42554E+01 3.41181E+01-9.52500E+00
 -1       464 3.42554E+01 2.45931E+01-9.52500E+00
 -1       465 2.70390E+01 1.93371E+01-9.52500E+00
 -1       466 3.02843E+01 3.78039E+01-9.52500E+00
 -1       467-3.42554E+01-2.45931E+01-9.52500E+00
 -1       468-3.42554E+01-3.41181E+01-9.52500E+00
 -1       469-3.02843E+01-3.78039E+01-9.52500E+00
 -1       470-3.40631E+01-4.30985E+00-9.52500E+00
 -1       471-3.40631E+01-1.38349E+01-9.52500E+00
 -1       472-2.70435E+01-1.93779E+01-9.52500E+00
 -1       473-3.37548E+01 1.55147E+01-9.52500E+00
 -1       474-3.37548E+01 5.98965E+00-9.52500E+00
 -1       475-2.65429E+01 1.67980E+00-9.52500E+00
 -1       476-3.26618E+01 3.45754E+01-9.52500E+00
 -1       477-3.26618E+01 2.50504E+01-9.52500E+00
 -1       478-2.51416E+01 2.15150E+01-9.52500E+00
 -1       479-2.92281E+01 3.89690E+01-9.52500E+00
 -1       480-1.53833E+01 3.77414E+01-9.52500E+00
 -1       481-4.84245E+00 3.38321E+01-9.52500E+00
 -1       482-1.35078E+01 2.71415E+01-9.52500E+00
 -1       483 1.99139E+00 3.97198E+01-9.52500E+00
 -1       484 3.86688E+00 2.91200E+01-9.52500E+00
 -1       485-1.86838E+01 2.28565E+01-9.52500E+00
 -1       486-8.14295E+00 1.89472E+01-9.52500E+00
 -1       487 5.93131E+00 1.22873E+01-9.52500E+00
 -1       488-1.72890E+00 1.52456E+01-9.52500E+00
 -1       489 4.69326E+00 2.02739E+01-9.52500E+00
 -1       490-6.90490E+00 1.09606E+01-9.52500E+00
 -1       491 1.15271E+01 2.61616E+01-9.52500E+00
 -1       492 1.53794E+01-3.77764E+01-9.52500E+00
 -1       493 4.82706E+00-3.39723E+01-9.52500E+00
 -1       494 1.34924E+01-2.72817E+01-9.52500E+00
 -1       495-1.99593E+00-3.97612E+01-9.52500E+00
 -1       496-3.88296E+00-2.92664E+01-9.52500E+00
 -1       497 1.86081E+01-2.29883E+01-9.52500E+00
 -1       498 8.05578E+00-1.91841E+01-9.52500E+00
 -1       499-1.15920E+01-2.62886E+01-9.52500E+00
 -1       500-4.76901E+00-2.04996E+01-9.52500E+00
 -1       501-5.98162E+00-1.28543E+01-9.52500E+00
 -1       502 1.72741E+00-1.58322E+01-9.52500E+00
 -1       503 6.84317E+00-1.15388E+01-9.52500E+00
 -1       504 2.81924E+01 4.57065E+01-9.52500E+00
 -1       505 2.84394E+01 5.09858E+01-9.52500E+00
 -1       506 2.35894E+01 5.10682E+01-9.52500E+00
 -1       507 2.51439E+01 3.80388E+01-9.52500E+00
 -1       508 1.89682E+01 3.25719E+01-9.52500E+00
 -1       509 1.68764E+01 4.04745E+01-9.52500E+00
 -1       510 1.72100E+01 4.89725E+01-9.52500E+00
 -1       511 1.10344E+01 4.35056E+01-9.52500E+00
 -1       512-2.81924E+01-4.57065E+01-9.52500E+00
 -1       513-2.84394E+01-5.09858E+01-9.52500E+00
 -1       514-2.35895E+01-5.10688E+01-9.52500E+00
 -1       515-2.51439E+01-3.80388E+01-9.52500E+00
 -1       516-1.89708E+01-3.25958E+01-9.52500E+00
 -1       517-1.68790E+01-4.04984E+01-9.52500E+00
 -1       518-1.72103E+01-4.89754E+01-9.52500E+00
 -1       519-1.10373E+01-4.35324E+01-9.52500E+00
 -1       520-2.90277E+01 5.33297E+01-9.52500E+00
 -1       521-2.91153E+01 4.83659E+01-9.52500E+00
 -1       522-2.39358E+01 4.04477E+01-9.52500E+00
 -1       523 2.90277E+01-5.33297E+01-9.52500E+00
 -1       524 2.91151E+01-4.83684E+01-9.52500E+00
 -1       525 2.39339E+01-4.04652E+01-9.52500E+00
 -1       526 1.95172E+01-6.12961E+00-9.52500E+00
 -1       527 1.98211E+01 4.12902E+00-9.52500E+00
 -1       528 1.97030E+01-1.34350E+01-9.52500E+00
 -1       529 1.29857E+01-7.58533E+00-9.52500E+00
 -1       530 1.95979E+01 1.29267E+01-9.52500E+00
 -1       531 1.25767E+01 8.51781E+00-9.52500E+00
 -1       532 6.15454E+00 3.48955E+00-9.52500E+00
 -1       533 1.19731E-02-4.63951E-01-9.52500E+00
 -1       534 6.65737E+00-4.23342E+00-9.52500E+00
 -1       535-1.95442E+01 5.88435E+00-9.52500E+00
 -1       536-1.98525E+01-4.41515E+00-9.52500E+00
 -1       537-1.97768E+01 1.33207E+01-9.52500E+00
 -1       538-1.30864E+01 7.22577E+00-9.52500E+00
 -1       539-1.96647E+01-1.30707E+01-9.52500E+00
 -1       540-1.26659E+01-8.86618E+00-9.52500E+00
 -1       541-6.67233E+00 3.52421E+00-9.52500E+00
 -1       542-6.16950E+00-4.19876E+00-9.52500E+00
 -1       543 1.97946E+01 2.37259E+01-9.52500E+00
 -1       544-1.98569E+01-2.38290E+01-9.52500E+00
 -1       545-4.12750E+01-4.89479E+01 4.44089E-16
 -1       546-4.12750E+01 4.89479E+01-5.10703E-01
 -1       547-4.12750E+01 5.30490E+01-4.76250E+00
 -1       548-4.12750E+01 5.30490E+01 4.76250E+00
 -1       549-4.12750E+01 4.48469E+01 4.76250E+00
 -1       550-4.12750E+01 4.35240E+01-4.76250E+00
 -1       551-4.12750E+01-5.30490E+01-4.76250E+00
 -1       552-4.12750E+01-5.30490E+01 4.76250E+00
 -1       553-4.12750E+01-4.48469E+01 4.76250E+00
 -1       554-4.12750E+01-4.35240E+01-4.76250E+00
 -1       555-4.12750E+01-3.96875E+00 0.00000E+00
 -1       556-4.12750E+01 3.96875E+00 0.00000E+00
 -1       557-4.12750E+01 1.34937E+01 0.00000E+00
 -1       558-4.12750E+01 2.16958E+01 0.00000E+00
 -1       559-4.12750E+01-1.34937E+01 0.00000E+00
 -1       560-4.12750E+01-2.16958E+01 0.00000E+00
 -1       561-4.12750E+01-3.12208E+01 0.00000E+00
 -1       562-4.12750E+01-3.94229E+01 0.00000E+00
 -1       563-4.12750E+01 3.12208E+01 0.00000E+00
 -1       564-4.12750E+01 3.94229E+01 0.00000E+00
 -1       565 4.12750E+01 7.63773E+00 7.24817E+00
 -1       566 4.12750E+01-9.53438E+00 1.06597E+01
 -1       567 4.12750E+01 1.60086E+01 1.81455E+01
 -1       568 4.12750E+01 4.92125E+01-6.66134E-01
 -1       569 4.12750E+01-4.92125E+01-6.66134E-01
 -1       570 4.12750E+01 2.84217E-14 1.84527E+01
 -1       571 4.12750E+01 5.31813E+01-4.76250E+00
 -1       572 4.12750E+01 5.31813E+01 4.76250E+00
 -1       573 4.12750E+01 4.52438E+01 4.76250E+00
 -1       574 4.12750E+01 4.36562E+01-4.76250E+00
 -1       575 4.12750E+01-5.31813E+01-4.76250E+00
 -1       576 4.12750E+01-5.31813E+01 4.76250E+00
 -1       577 4.12750E+01-4.52438E+01 4.76250E+00
 -1       578 4.12750E+01-4.36562E+01-4.76250E+00
 -1       579 4.12750E+01 2.07043E+01 2.25640E+01
 -1       580 4.12750E+01 2.07043E+01 1.38353E+01
 -1       581 4.12750E+01 3.17500E+01 0.00000E+00
 -1       582 4.12750E+01 2.22250E+01 0.00000E+00
 -1       583 4.12750E+01 1.33439E+01-1.13841E+00
 -1       584 4.12750E+01 1.65189E+01 8.38659E+00
 -1       585 4.12750E+01 3.96875E+01 0.00000E+00
 -1       586 4.12750E+01 1.18232E+01 1.26969E+01
 -1       587 4.12750E+01 1.22376E+01 2.25640E+01
 -1       588 4.12750E+01-1.74672E+01 1.00924E+01
 -1       589 4.12750E+01-1.74672E+01 1.88211E+01
 -1       590 4.12750E+01-9.00052E+00 1.88211E+01
 -1       591 4.12750E+01-2.22250E+01 0.00000E+00
 -1       592 4.12750E+01-3.17500E+01 0.00000E+00
 -1       593 4.12750E+01-3.96875E+01 0.00000E+00
 -1       594 4.12750E+01-1.42922E+01 5.67369E-01
 -1       595 4.12750E+01-4.76719E+00 5.67369E-01
 -1       596 4.12750E+01 3.81887E+00-1.13841E+00
 -1       597 4.12750E+01-9.48325E-01 8.95396E+00
 -1       598 4.12750E+01 4.23333E+00 2.27176E+01
 -1       599 4.12750E+01-4.23333E+00 2.27176E+01
 -1       600 4.12750E+01-4.76719E+00 1.45562E+01
 -1       601 4.12750E+01 8.00430E+00 1.82991E+01
 -1       602 4.12750E+01 3.81887E+00 1.28504E+01
 -1       603-2.68136E+01 4.68854E+01 9.52500E+00
 -1       604 2.57699E+01 4.80178E+01 9.52500E+00
 -1       605-3.09960E+00 3.60133E+01 9.52500E+00
 -1       606-3.46846E+01 5.67715E+01 9.52500E+00
 -1       607 3.42798E+01 5.66409E+01 9.52500E+00
 -1       608-2.15942E+01 2.93087E+01 9.52500E+00
 -1       609 1.05543E+01 5.12767E+01 9.52500E+00
 -1       610 2.45983E+01 5.65871E+01 9.52500E+00
 -1       611-2.50006E+01 5.74282E+01 9.52500E+00
 -1       612-3.60120E+01 5.03882E+01 9.52500E+00
 -1       613-1.12426E+01 5.13762E+01 9.52500E+00
 -1       614 3.43619E+01 4.78938E+01 9.52500E+00
 -1       615-1.00576E+01 2.08443E+01 9.52500E+00
 -1       616 8.10596E+00 2.25038E+01 9.52500E+00
 -1       617 2.99161E+01 3.71669E+01 9.52500E+00
 -1       618 1.55786E+01 3.67298E+01 9.52500E+00
 -1       619-2.92178E+01 1.80414E+01 9.52500E+00
 -1       620-1.56875E+01 4.08959E+01 9.52500E+00
 -1       621-3.70498E+01 5.92058E+01 9.52500E+00
 -1       622-3.48048E+01 6.01357E+01 9.52500E+00
 -1       623-2.99628E+01 6.04641E+01 9.52500E+00
 -1       624-2.12316E+01 6.04641E+01 9.52500E+00
 -1       625-2.98426E+01 5.70998E+01 9.52500E+00
 -1       626-3.79798E+01 5.69607E+01 9.52500E+00
 -1       627-3.86435E+01 4.55670E+01 9.52500E+00
 -1       628-3.86435E+01 5.37691E+01 9.52500E+00
 -1       629-3.53483E+01 5.35798E+01 9.52500E+00
 -1       630 3.68475E+01 5.91405E+01 9.52500E+00
 -1       631 3.77774E+01 5.68955E+01 9.52500E+00
 -1       632 3.78185E+01 5.25219E+01 9.52500E+00
 -1       633 3.78185E+01 4.45844E+01 9.52500E+00
 -1       634 3.43209E+01 5.22674E+01 9.52500E+00
 -1       635 3.46024E+01 6.00705E+01 9.52500E+00
 -1       636 2.10304E+01 6.00435E+01 9.52500E+00
 -1       637 2.97616E+01 6.00435E+01 9.52500E+00
 -1       638 2.94390E+01 5.66140E+01 9.52500E+00
 -1       639-3.52464E+01 1.29894E+01 9.52500E+00
 -1       640-3.52464E+01 2.11915E+01 9.52500E+00
 -1       641-2.46631E+01 1.29894E+01 9.52500E+00
 -1       642 3.55956E+01 3.12835E+01 9.52500E+00
 -1       643 2.60706E+01 3.12835E+01 9.52500E+00
 -1       644 3.55956E+01 3.92210E+01 9.52500E+00
 -1       645 1.51655E+01 2.39519E+01 9.52500E+00
 -1       646 1.51655E+01 1.52207E+01 9.52500E+00
 -1       647 4.58215E+00 1.52207E+01 9.52500E+00
 -1       648 1.89018E+01 3.10649E+01 9.52500E+00
 -1       649 1.18423E+01 2.96168E+01 9.52500E+00
 -1       650 2.27474E+01 3.69484E+01 9.52500E+00
 -1       651-1.43525E+01 5.74381E+01 9.52500E+00
 -1       652-5.62129E+00 5.74381E+01 9.52500E+00
 -1       653-1.81216E+01 5.44022E+01 9.52500E+00
 -1       654 5.27714E+00 5.73883E+01 9.52500E+00
 -1       655 1.40084E+01 5.73883E+01 9.52500E+00
 -1       656-3.44150E-01 5.13265E+01 9.52500E+00
 -1       657 1.75763E+01 5.39319E+01 9.52500E+00
 -1       658-3.14346E+01 2.68252E+01 9.52500E+00
 -1       659-3.14346E+01 3.50272E+01 9.52500E+00
 -1       660-2.54060E+01 2.36750E+01 9.52500E+00
 -1       661-2.42039E+01 3.80970E+01 9.52500E+00
 -1       662-3.40443E+01 4.38156E+01 9.52500E+00
 -1       663-3.14128E+01 4.86368E+01 9.52500E+00
 -1       664 3.21390E+01 4.25304E+01 9.52500E+00
 -1       665-4.49965E+00 1.43909E+01 9.52500E+00
 -1       666-1.50830E+01 1.43909E+01 9.52500E+00
 -1       667-1.96377E+01 1.94428E+01 9.52500E+00
 -1       668-9.75839E-01 2.16740E+01 9.52500E+00
 -1       669-2.59071E+01 5.21568E+01 9.52500E+00
 -1       670-3.07491E+01 5.18284E+01 9.52500E+00
 -1       671-1.86409E+01 3.51023E+01 9.52500E+00
 -1       672-2.12505E+01 4.38906E+01 9.52500E+00
 -1       673-1.90281E+01 4.91308E+01 9.52500E+00
 -1       674-1.34650E+01 4.61361E+01 9.52500E+00
 -1       675 3.00248E+01 5.23294E+01 9.52500E+00
 -1       676 2.51841E+01 5.23024E+01 9.52500E+00
 -1       677 3.00659E+01 4.79558E+01 9.52500E+00
 -1       678 1.81621E+01 4.96473E+01 9.52500E+00
 -1       679 1.30664E+01 4.40032E+01 9.52500E+00
 -1       680 2.06742E+01 4.23738E+01 9.52500E+00
 -1       681 2.78430E+01 4.25924E+01 9.52500E+00
 -1       682-1.23469E+01 3.26610E+01 9.52500E+00
 -1       683-1.58259E+01 2.50765E+01 9.52500E+00
 -1       684-6.57862E+00 2.84288E+01 9.52500E+00
 -1       685-9.39355E+00 3.84546E+01 9.52500E+00
 -1       686 3.72734E+00 4.36450E+01 9.52500E+00
 -1       687-7.17109E+00 4.36948E+01 9.52500E+00
 -1       688 6.23950E+00 3.63715E+01 9.52500E+00
 -1       689 2.50318E+00 2.92586E+01 9.52500E+00
 -1       690-2.68136E+01-4.68854E+01 9.52500E+00
 -1       691 2.57699E+01-4.80178E+01 9.52500E+00
 -1       692-3.09960E+00-3.60133E+01 9.52500E+00
 -1       693-3.46846E+01-5.67715E+01 9.52500E+00
 -1       694 3.42798E+01-5.66409E+01 9.52500E+00
 -1       695-2.15942E+01-2.93087E+01 9.52500E+00
 -1       696 1.05543E+01-5.12767E+01 9.52500E+00
 -1       697 2.45983E+01-5.65871E+01 9.52500E+00
 -1       698-2.50006E+01-5.74282E+01 9.52500E+00
 -1       699-3.60120E+01-5.03882E+01 9.52500E+00
 -1       700-1.12426E+01-5.13762E+01 9.52500E+00
 -1       701 3.43619E+01-4.78938E+01 9.52500E+00
 -1       702-1.00576E+01-2.08443E+01 9.52500E+00
 -1       703 8.10596E+00-2.25038E+01 9.52500E+00
 -1       704 2.99161E+01-3.71669E+01 9.52500E+00
 -1       705 1.55786E+01-3.67298E+01 9.52500E+00
 -1       706-2.92178E+01-1.80414E+01 9.52500E+00
 -1       707-1.56875E+01-4.08959E+01 9.52500E+00
 -1       708-3.70498E+01-5.92058E+01 9.52500E+00
 -1       709-3.79798E+01-5.69607E+01 9.52500E+00
 -1       710-3.86435E+01-5.37691E+01 9.52500E+00
 -1       711-3.86435E+01-4.55670E+01 9.52500E+00
 -1       712-3.53483E+01-5.35798E+01 9.52500E+00
 -1       713-3.48048E+01-6.01357E+01 9.52500E+00
 -1       714-2.12316E+01-6.04641E+01 9.52500E+00
 -1       715-2.99628E+01-6.04641E+01 9.52500E+00
 -1       716-2.98426E+01-5.70998E+01 9.52500E+00
 -1       717 3.68475E+01-5.91405E+01 9.52500E+00
 -1       718 3.46024E+01-6.00705E+01 9.52500E+00
 -1       719 2.97616E+01-6.00435E+01 9.52500E+00
 -1       720 2.10304E+01-6.00435E+01 9.52500E+00
 -1       721 2.94390E+01-5.66140E+01 9.52500E+00
 -1       722 3.77774E+01-5.68955E+01 9.52500E+00
 -1       723 3.78185E+01-4.45844E+01 9.52500E+00
 -1       724 3.78185E+01-5.25219E+01 9.52500E+00
 -1       725 3.43209E+01-5.22674E+01 9.52500E+00
 -1       726-3.52464E+01-2.11915E+01 9.52500E+00
 -1       727-3.52464E+01-1.29894E+01 9.52500E+00
 -1       728-2.46631E+01-1.29894E+01 9.52500E+00
 -1       729 2.60706E+01-3.12835E+01 9.52500E+00
 -1       730 3.55956E+01-3.12835E+01 9.52500E+00
 -1       731 3.55956E+01-3.92210E+01 9.52500E+00
 -1       732 1.51655E+01-1.52207E+01 9.52500E+00
 -1       733 1.51655E+01-2.39519E+01 9.52500E+00
 -1       734 1.18423E+01-2.96168E+01 9.52500E+00
 -1       735 1.89018E+01-3.10649E+01 9.52500E+00
 -1       736 2.27474E+01-3.69484E+01 9.52500E+00
 -1       737 4.58215E+00-1.52207E+01 9.52500E+00
 -1       738-5.62129E+00-5.74381E+01 9.52500E+00
 -1       739-1.43525E+01-5.74381E+01 9.52500E+00
 -1       740-1.81216E+01-5.44022E+01 9.52500E+00
 -1       741 1.40084E+01-5.73883E+01 9.52500E+00
 -1       742 5.27714E+00-5.73883E+01 9.52500E+00
 -1       743-3.44150E-01-5.13265E+01 9.52500E+00
 -1       744 1.75763E+01-5.39319E+01 9.52500E+00
 -1       745-3.14346E+01-3.50272E+01 9.52500E+00
 -1       746-3.14346E+01-2.68252E+01 9.52500E+00
 -1       747-3.40443E+01-4.38156E+01 9.52500E+00
 -1       748-2.42039E+01-3.80970E+01 9.52500E+00
 -1       749-3.14128E+01-4.86368E+01 9.52500E+00
 -1       750-2.54060E+01-2.36750E+01 9.52500E+00
 -1       751 3.21390E+01-4.25304E+01 9.52500E+00
 -1       752-1.50830E+01-1.43909E+01 9.52500E+00
 -1       753-4.49965E+00-1.43909E+01 9.52500E+00
 -1       754-1.96377E+01-1.94428E+01 9.52500E+00
 -1       755-9.75839E-01-2.16740E+01 9.52500E+00
 -1       756-3.07491E+01-5.18284E+01 9.52500E+00
 -1       757-2.59071E+01-5.21568E+01 9.52500E+00
 -1       758-2.12505E+01-4.38906E+01 9.52500E+00
 -1       759-1.86409E+01-3.51023E+01 9.52500E+00
 -1       760-1.90281E+01-4.91308E+01 9.52500E+00
 -1       761-1.34650E+01-4.61361E+01 9.52500E+00
 -1       762 2.51841E+01-5.23024E+01 9.52500E+00
 -1       763 3.00248E+01-5.23294E+01 9.52500E+00
 -1       764 3.00659E+01-4.79558E+01 9.52500E+00
 -1       765 1.81621E+01-4.96473E+01 9.52500E+00
 -1       766 2.06742E+01-4.23738E+01 9.52500E+00
 -1       767 1.30664E+01-4.40032E+01 9.52500E+00
 -1       768 2.78430E+01-4.25924E+01 9.52500E+00
 -1       769-6.57862E+00-2.84288E+01 9.52500E+00
 -1       770-1.58259E+01-2.50765E+01 9.52500E+00
 -1       771-1.23469E+01-3.26610E+01 9.52500E+00
 -1       772-9.39355E+00-3.84546E+01 9.52500E+00
 -1       773-7.17109E+00-4.36948E+01 9.52500E+00
 -1       774 3.72734E+00-4.36450E+01 9.52500E+00
 -1       775 6.23950E+00-3.63715E+01 9.52500E+00
 -1       776 2.50318E+00-2.92586E+01 9.52500E+00
 -1       777 5.45753E+01 2.05704E+01 6.18124E+01
 -1       778 4.41306E+01 1.66688E+01 5.93900E+01
 -1       779 4.56484E+01 2.05704E+01 5.99592E+01
 -1       780 3.73223E+01 1.66688E+01 5.57334E+01
 -1       781 2.30800E+01 1.66688E+01 3.46631E+01
 -1       782 2.62288E+01 1.66688E+01 4.32193E+01
 -1       783 3.05566E+01 1.66688E+01 4.96220E+01
 -1       784 4.41306E+01-1.66688E+01 5.93900E+01
 -1       785 4.56483E+01-2.05704E+01 5.99592E+01
 -1       786 3.73223E+01-1.66688E+01 5.57334E+01
 -1       787 5.45753E+01-2.05704E+01 6.18124E+01
 -1       788 2.30800E+01-1.66688E+01 3.46631E+01
 -1       789 2.62288E+01-1.66688E+01 4.32193E+01
 -1       790 3.05566E+01-1.66688E+01 4.96220E+01
 -1       791 1.08389E+02 1.28736E+01 5.23875E+01
 -1       792 1.08389E+02-1.28736E+01 5.23875E+01
 -1       793 6.95609E+01 3.00586E+01 5.23855E+01
 -1       794 9.00393E+01-2.98356E+01 5.23875E+01
 -1       795 6.97184E+01-3.01101E+01 5.23855E+01
 -1       796 9.00229E+01 2.98414E+01 5.23872E+01
 -1       797 5.26571E+01 1.68121E+01 4.05044E+01
 -1       798 5.26572E+01-1.68121E+01 4.05044E+01
 -1       799 5.29026E+01 1.71974E+01 6.41014E+01
 -1       800 5.54324E+01 2.05861E+01 6.42912E+01
 -1       801 5.61864E+01 2.14355E+01 6.42912E+01
 -1       802 5.01636E+01 1.19454E+01 6.18398E+01
 -1       803 5.01636E+01-1.19454E+01 6.18398E+01
 -1       804 5.54324E+01-2.05861E+01 6.42912E+01
 -1       805 5.29026E+01-1.71973E+01 6.41014E+01
 -1       806 5.61864E+01-2.14355E+01 6.42912E+01
 -1       807 1.10433E+02 6.58062E+00 5.95312E+01
 -1       808 1.06885E+02 1.58255E+01 5.95312E+01
 -1       809 1.10433E+02-6.58062E+00 5.95312E+01
 -1       810 1.06885E+02-1.58255E+01 5.95312E+01
 -1       811 1.10433E+02 6.58062E+00 5.23875E+01
 -1       812 1.10433E+02-6.58062E+00 5.23875E+01
 -1       813 1.10433E+02 6.58062E+00 4.52438E+01
 -1       814 1.10433E+02-6.58062E+00 4.52438E+01
 -1       815 1.06885E+02 1.58255E+01 4.52438E+01
 -1       816 1.06885E+02-1.58255E+01 4.52438E+01
 -1       817 5.54324E+01-2.05861E+01 4.04787E+01
 -1       818 5.61864E+01-2.14355E+01 4.04787E+01
 -1       819 5.47431E+01-1.97528E+01 4.16809E+01
 -1       820 5.32471E+01-1.77184E+01 3.93022E+01
 -1       821 5.04694E+01-1.26698E+01 4.05300E+01
 -1       822 5.54324E+01 2.05861E+01 4.04787E+01
 -1       823 5.61864E+01 2.14355E+01 4.04787E+01
 -1       824 5.47431E+01 1.97528E+01 4.16809E+01
 -1       825 5.32471E+01 1.77184E+01 3.93022E+01
 -1       826 5.04694E+01 1.26698E+01 4.05301E+01
 -1       827 6.48879E+01 2.80898E+01 5.71464E+01
 -1       828 6.48879E+01 2.80898E+01 4.76214E+01
 -1       829 5.69705E+01 2.22572E+01 4.04787E+01
 -1       830 6.49498E+01 2.81218E+01 4.04787E+01
 -1       831 6.96270E+01 3.00803E+01 4.52427E+01
 -1       832 6.49498E+01 2.81218E+01 6.42912E+01
 -1       833 5.69705E+01 2.22572E+01 6.42912E+01
 -1       834 6.96270E+01 3.00803E+01 5.95302E+01
 -1       835 5.08498E+01 1.35073E+01 6.44134E+01
 -1       836 4.80768E+01 4.00084E+00 6.44134E+01
 -1       837 4.78229E+01 1.36494E-06 6.43875E+01
 -1       838 5.08498E+01-1.35073E+01 6.44134E+01
 -1       839 4.80768E+01-4.00084E+00 6.44134E+01
 -1       840 6.49615E+01-2.81279E+01 4.76214E+01
 -1       841 6.49615E+01-2.81279E+01 5.71464E+01
 -1       842 5.69705E+01-2.22572E+01 6.42912E+01
 -1       843 6.49498E+01-2.81218E+01 6.42912E+01
 -1       844 6.97058E+01-3.01060E+01 5.95302E+01
 -1       845 6.49498E+01-2.81218E+01 4.04787E+01
 -1       846 5.69705E+01-2.22572E+01 4.04787E+01
 -1       847 6.97058E+01-3.01060E+01 4.52427E+01
 -1       848 9.84046E+01 2.53657E+01 5.95311E+01
 -1       849 8.96396E+01 2.99741E+01 5.95311E+01
 -1       850 1.00952E+02 2.32480E+01 5.23874E+01
 -1       851 7.94043E+01 3.16510E+01 5.95302E+01
 -1       852 7.98099E+01 3.16493E+01 5.23864E+01
 -1       853 7.94872E+01-3.16510E+01 5.95302E+01
 -1       854 9.84116E+01-2.53605E+01 5.95312E+01
 -1       855 8.96479E+01-2.99713E+01 5.95312E+01
 -1       856 7.99015E+01-3.16482E+01 5.23865E+01
 -1       857 1.00959E+02-2.32421E+01 5.23875E+01
 -1       858 9.84046E+01 2.53657E+01 4.52436E+01
 -1       859 8.96396E+01 2.99741E+01 4.52436E+01
 -1       860 7.94043E+01 3.16510E+01 4.52427E+01
 -1       861 4.80976E+01 4.16106E+00 3.93279E+01
 -1       862 5.09191E+01 1.36532E+01 3.93279E+01
 -1       863 5.09192E+01-1.36533E+01 3.93279E+01
 -1       864 4.80976E+01-4.16110E+00 3.93279E+01
 -1       865 7.94872E+01-3.16510E+01 4.52427E+01
 -1       866 9.84116E+01-2.53605E+01 4.52438E+01
 -1       867 8.96479E+01-2.99713E+01 4.52438E+01
 -1       868 7.94740E+01 6.48317E-16 3.81000E+01
 -1       869 9.28816E+01-9.26745E+00 3.81000E+01
 -1       870 7.48033E+01 1.56152E+01 3.81000E+01
 -1       871 7.94740E+01-1.66399E+01 3.81000E+01
 -1       872 6.36484E+01 5.14202E+00 3.81000E+01
 -1       873 9.21031E+01 9.17561E+00 3.81000E+01
 -1       874 6.60664E+01-9.74119E+00 3.81000E+01
 -1       875 1.01614E+02 4.58781E+00 3.81000E+01
 -1       876 9.85917E+01 1.38898E+01 3.81000E+01
 -1       877 9.89809E+01-1.39357E+01 3.81000E+01
 -1       878 1.02003E+02-4.63372E+00 3.81000E+01
 -1       879 9.24923E+01-4.59180E-02 3.81000E+01
 -1       880 9.06789E+01 1.96388E+01 3.81000E+01
 -1       881 8.20290E+01 2.28586E+01 3.81000E+01
 -1       882 7.22483E+01 2.28586E+01 3.81000E+01
 -1       883 8.34532E+01 1.23954E+01 3.81000E+01
 -1       884 6.43355E+01 1.71096E+01 3.81000E+01
 -1       885 5.87581E+01 1.18730E+01 3.81000E+01
 -1       886 5.57357E+01 2.57101E+00 3.81000E+01
 -1       887 6.92259E+01 1.03786E+01 3.81000E+01
 -1       888 5.69446E+01-4.87059E+00 3.81000E+01
 -1       889 5.99670E+01-1.41726E+01 3.81000E+01
 -1       890 6.48574E+01-2.29958E+00 3.81000E+01
 -1       891 6.78798E+01-1.99216E+01 3.81000E+01
 -1       892 7.45836E+01-2.33709E+01 3.81000E+01
 -1       893 8.43643E+01-2.33709E+01 3.81000E+01
 -1       894 7.27702E+01-1.31906E+01 3.81000E+01
 -1       895 9.10681E+01-1.96847E+01 3.81000E+01
 -1       896 8.61778E+01-1.29537E+01 3.81000E+01
 -1       897 8.61778E+01-4.63372E+00 3.81000E+01
 -1       898 7.94740E+01-8.31997E+00 3.81000E+01
 -1       899 8.57885E+01 4.58781E+00 3.81000E+01
 -1       900 7.15612E+01 2.57101E+00 3.81000E+01
 -1       901 7.71386E+01 7.80759E+00 3.81000E+01
 -1       902 7.27702E+01-4.87059E+00 3.81000E+01
 -1       903 7.94740E+01 6.48317E-16 6.66750E+01
 -1       904 9.28816E+01-9.26745E+00 6.66750E+01
 -1       905 7.48033E+01 1.56152E+01 6.66750E+01
 -1       906 7.94740E+01-1.66399E+01 6.66750E+01
 -1       907 6.36484E+01 5.14202E+00 6.66750E+01
 -1       908 9.21031E+01 9.17561E+00 6.66750E+01
 -1       909 6.60664E+01-9.74119E+00 6.66750E+01
 -1       910 9.85917E+01 1.38898E+01 6.66750E+01
 -1       911 1.01614E+02 4.58781E+00 6.66750E+01
 -1       912 9.89809E+01-1.39357E+01 6.66750E+01
 -1       913 1.02003E+02-4.63372E+00 6.66750E+01
 -1       914 9.24923E+01-4.59180E-02 6.66750E+01
 -1       915 9.06789E+01 1.96388E+01 6.66750E+01
 -1       916 7.22483E+01 2.28586E+01 6.66750E+01
 -1       917 8.20290E+01 2.28586E+01 6.66750E+01
 -1       918 8.34532E+01 1.23954E+01 6.66750E+01
 -1       919 6.43355E+01 1.71096E+01 6.66750E+01
 -1       920 5.57357E+01 2.57101E+00 6.66750E+01
 -1       921 5.87581E+01 1.18730E+01 6.66750E+01
 -1       922 6.92259E+01 1.03786E+01 6.66750E+01
 -1       923 5.99670E+01-1.41726E+01 6.66750E+01
 -1       924 5.69446E+01-4.87059E+00 6.66750E+01
 -1       925 6.48574E+01-2.29958E+00 6.66750E+01
 -1       926 6.78798E+01-1.99216E+01 6.66750E+01
 -1       927 8.43643E+01-2.33709E+01 6.66750E+01
 -1       928 7.45836E+01-2.33709E+01 6.66750E+01
 -1       929 7.27702E+01-1.31906E+01 6.66750E+01
 -1       930 9.10681E+01-1.96847E+01 6.66750E+01
 -1       931 8.61778E+01-1.29537E+01 6.66750E+01
 -1       932 8.61778E+01-4.63372E+00 6.66750E+01
 -1       933 7.94740E+01-8.31997E+00 6.66750E+01
 -1       934 8.57885E+01 4.58781E+00 6.66750E+01
 -1       935 7.15612E+01 2.57101E+00 6.66750E+01
 -1       936 7.71386E+01 7.80759E+00 6.66750E+01
 -1       937 7.27702E+01-4.87059E+00 6.66750E+01
 -1       938 5.79832E+01 2.46902E+01 6.19074E+01
 -1       939 5.79832E+01 2.46902E+01 4.28574E+01
 -1       940 5.79832E+01-2.46902E+01 6.19074E+01
 -1       941-3.72835E+01 0.00000E+00 1.76698E+01
 -1       942-3.18245E+01 0.00000E+00 2.48906E+01
 -1       943 3.93087E+01 3.96875E+00 6.11426E+01
 -1       944 3.93087E+01-3.96875E+00 6.11426E+01
 -1       945 3.09136E+01 0.00000E+00 5.94454E+01
 -1       946-2.53960E+01 0.00000E+00 3.12937E+01
 -1       947-1.83269E+01 0.00000E+00 3.69749E+01
 -1       948-1.07958E+01 0.00000E+00 4.20370E+01
 -1       949-2.92121E+00 0.00000E+00 4.65439E+01
 -1       950 5.22721E+00 0.00000E+00 5.05372E+01
 -1       951 1.36015E+01 0.00000E+00 5.40317E+01
 -1       952 2.21705E+01 0.00000E+00 5.70160E+01
 -1       953 4.28744E+01-1.68792E+01 3.39267E+01
 -1       954 4.28744E+01 1.68791E+01 3.39267E+01
 -1       955 4.16800E+01 2.11396E+01 3.05455E+01
 -1       956 4.16800E+01 1.26729E+01 3.05455E+01
 -1       957 4.42211E+01 2.11396E+01 3.61943E+01
 -1       958 4.16800E+01-1.26729E+01 3.05454E+01
 -1       959 4.16800E+01-2.11396E+01 3.05454E+01
 -1       960 4.42211E+01-2.11396E+01 3.61943E+01
 -1       961 5.10749E+01-2.39186E+01 4.16490E+01
 -1       962 4.73503E+01-1.68250E+01 3.94717E+01
 -1       963 5.10749E+01 2.39186E+01 4.16490E+01
 -1       964 4.73503E+01 1.68249E+01 3.94717E+01
 -1       965 4.33168E+01 1.08346E-01 3.47708E+01
 -1       966 4.33168E+01-8.35832E+00 3.47708E+01
 -1       967 4.54178E+01-1.25646E+01 3.76768E+01
 -1       968 4.33168E+01 8.35827E+00 3.47708E+01
 -1       969 4.54178E+01 1.25645E+01 3.76769E+01
 -1       970 5.79832E+01-2.46902E+01 4.28574E+01
 -1       971 5.88697E+01-2.54000E+01 5.23824E+01
 -1       972 5.75788E+01-2.54000E+01 4.70052E+01
 -1       973 4.66994E+01-2.54000E+01 5.03901E+01
 -1       974 5.84421E+01-2.54000E+01 5.73841E+01
 -1       975 5.05539E+01-2.54000E+01 5.68208E+01
 -1       976 5.37551E+01-2.54000E+01 4.95865E+01
 -1       977 5.53868E+01-2.54000E+01 5.49542E+01
 -1       978 5.60805E+01-2.54000E+01 5.81983E+01
 -1       979 3.17500E+01-2.54000E+01 1.82537E+01
 -1       980 3.47529E+01-2.54000E+01 3.62596E+01
 -1       981 4.07605E+01-2.54000E+01 4.48899E+01
 -1       982 5.80655E+01-2.54000E+01 5.98493E+01
 -1       983 4.88580E+01-2.54000E+01 4.51863E+01
 -1       984 3.65125E+01-2.54000E+01 2.26181E+01
 -1       985 3.65125E+01-2.54000E+01 1.38894E+01
 -1       986 2.69875E+01-2.54000E+01 2.26181E+01
 -1       987 3.17500E+01-2.54000E+01 2.69824E+01
 -1       988 2.84890E+01-2.54000E+01 3.16210E+01
 -1       989 3.80140E+01-2.54000E+01 3.16210E+01
 -1       990 4.03388E+01-2.54000E+01 3.72337E+01
 -1       991 2.69875E+01-2.54000E+01 1.38894E+01
 -1       992 3.08285E+01-2.54000E+01 4.03523E+01
 -1       993 5.76077E+01-2.54000E+01 6.08784E+01
 -1       994 5.93274E+01-2.54000E+01 6.08784E+01
 -1       995 4.51207E+01-2.54000E+01 5.70246E+01
 -1       996 5.38519E+01-2.54000E+01 5.93641E+01
 -1       997 5.33172E+01-2.54000E+01 5.75095E+01
 -1       998 5.66152E+01-2.54000E+01 6.00528E+01
 -1       999 5.70730E+01-2.54000E+01 5.90238E+01
 -1      1000 5.97295E+01-2.54000E+01 5.71449E+01
 -1      1001 5.97295E+01-2.54000E+01 4.76199E+01
 -1      1002 5.95157E+01-2.54000E+01 5.96458E+01
 -1      1003 5.86559E+01-2.54000E+01 5.48833E+01
 -1      1004 5.82538E+01-2.54000E+01 5.86167E+01
 -1      1005 5.90841E+01-2.54000E+01 4.49313E+01
 -1      1006 5.73644E+01-2.54000E+01 4.49313E+01
 -1      1007 5.82242E+01-2.54000E+01 4.96938E+01
 -1      1008 5.30040E+01-2.54000E+01 4.40219E+01
 -1      1009 4.73913E+01-2.54000E+01 4.16970E+01
 -1      1010 5.56670E+01-2.54000E+01 4.82959E+01
 -1      1011 5.54526E+01-2.54000E+01 4.62220E+01
 -1      1012 5.13065E+01-2.54000E+01 4.73864E+01
 -1      1013 3.38323E+01-2.54000E+01 4.46674E+01
 -1      1014 4.02240E+01-2.54000E+01 5.10591E+01
 -1      1015 3.77567E+01-2.54000E+01 4.05747E+01
 -1      1016 4.31935E+01-2.54000E+01 5.38092E+01
 -1      1017 4.86266E+01-2.54000E+01 5.36054E+01
 -1      1018 4.37300E+01-2.54000E+01 4.76400E+01
 -1      1019 4.33426E+01-2.54000E+01 4.15488E+01
 -1      1020 4.48092E+01-2.54000E+01 4.50381E+01
 -1      1021 5.63124E+01-2.54000E+01 5.09845E+01
 -1      1022 5.69144E+01-2.54000E+01 5.61692E+01
 -1      1023 5.71282E+01-2.54000E+01 5.36683E+01
 -1      1024 5.45710E+01-2.54000E+01 5.22704E+01
 -1      1025 5.02273E+01-2.54000E+01 4.99883E+01
 -1      1026 5.21545E+01-2.54000E+01 5.32037E+01
 -1      1027 4.77787E+01-2.54000E+01 4.77882E+01
 -1      1028 5.72613E+01-2.54000E+01 5.77912E+01
 -1      1029 5.57336E+01-2.54000E+01 5.65763E+01
 -1      1030 5.29703E+01-2.54000E+01 5.58875E+01
 -1      1031 5.88697E+01 2.54000E+01 5.23824E+01
 -1      1032 5.84421E+01 2.54000E+01 5.73841E+01
 -1      1033 5.75788E+01 2.54000E+01 4.70052E+01
 -1      1034 4.66994E+01 2.54000E+01 5.03901E+01
 -1      1035 5.05539E+01 2.54000E+01 5.68208E+01
 -1      1036 5.37551E+01 2.54000E+01 4.95865E+01
 -1      1037 5.53868E+01 2.54000E+01 5.49542E+01
 -1      1038 5.60805E+01 2.54000E+01 5.81983E+01
 -1      1039 3.17500E+01 2.54000E+01 1.82537E+01
 -1      1040 3.47529E+01 2.54000E+01 3.62596E+01
 -1      1041 4.07605E+01 2.54000E+01 4.48899E+01
 -1      1042 5.80655E+01 2.54000E+01 5.98493E+01
 -1      1043 4.88580E+01 2.54000E+01 4.51863E+01
 -1      1044 3.65125E+01 2.54000E+01 2.26181E+01
 -1      1045 3.65125E+01 2.54000E+01 1.38894E+01
 -1      1046 2.69875E+01 2.54000E+01 1.38894E+01
 -1      1047 2.69875E+01 2.54000E+01 2.26181E+01
 -1      1048 3.17500E+01 2.54000E+01 2.69824E+01
 -1      1049 2.84890E+01 2.54000E+01 3.16210E+01
 -1      1050 3.80140E+01 2.54000E+01 3.16210E+01
 -1      1051 4.03388E+01 2.54000E+01 3.72337E+01
 -1      1052 5.93274E+01 2.54000E+01 6.08784E+01
 -1      1053 5.76077E+01 2.54000E+01 6.08784E+01
 -1      1054 4.51207E+01 2.54000E+01 5.70246E+01
 -1      1055 5.38519E+01 2.54000E+01 5.93641E+01
 -1      1056 5.33172E+01 2.54000E+01 5.75095E+01
 -1      1057 5.66152E+01 2.54000E+01 6.00528E+01
 -1      1058 5.70730E+01 2.54000E+01 5.90238E+01
 -1      1059 3.08285E+01 2.54000E+01 4.03523E+01
 -1      1060 5.97295E+01 2.54000E+01 5.71449E+01
 -1      1061 5.97295E+01 2.54000E+01 4.76199E+01
 -1      1062 5.73644E+01 2.54000E+01 4.49313E+01
 -1      1063 5.90841E+01 2.54000E+01 4.49313E+01
 -1      1064 5.82242E+01 2.54000E+01 4.96938E+01
 -1      1065 5.86559E+01 2.54000E+01 5.48833E+01
 -1      1066 5.95157E+01 2.54000E+01 5.96458E+01
 -1      1067 5.82538E+01 2.54000E+01 5.86167E+01
 -1      1068 4.73913E+01 2.54000E+01 4.16970E+01
 -1      1069 5.30040E+01 2.54000E+01 4.40219E+01
 -1      1070 5.56670E+01 2.54000E+01 4.82959E+01
 -1      1071 5.54526E+01 2.54000E+01 4.62220E+01
 -1      1072 5.13065E+01 2.54000E+01 4.73864E+01
 -1      1073 4.02240E+01 2.54000E+01 5.10591E+01
 -1      1074 3.38323E+01 2.54000E+01 4.46674E+01
 -1      1075 3.77567E+01 2.54000E+01 4.05747E+01
 -1      1076 4.86266E+01 2.54000E+01 5.36054E+01
 -1      1077 4.31935E+01 2.54000E+01 5.38092E+01
 -1      1078 4.37300E+01 2.54000E+01 4.76400E+01
 -1      1079 4.33426E+01 2.54000E+01 4.15488E+01
 -1      1080 4.48092E+01 2.54000E+01 4.50381E+01
 -1      1081 5.69144E+01 2.54000E+01 5.61692E+01
 -1      1082 5.71282E+01 2.54000E+01 5.36683E+01
 -1      1083 5.63124E+01 2.54000E+01 5.09845E+01
 -1      1084 5.45710E+01 2.54000E+01 5.22704E+01
 -1      1085 5.57336E+01 2.54000E+01 5.65763E+01
 -1      1086 5.72613E+01 2.54000E+01 5.77912E+01
 -1      1087 5.21545E+01 2.54000E+01 5.32037E+01
 -1      1088 5.02273E+01 2.54000E+01 4.99883E+01
 -1      1089 4.77787E+01 2.54000E+01 4.77882E+01
 -1      1090 5.29703E+01 2.54000E+01 5.58875E+01
 -1      1091 3.20792E+00 7.93750E+00 2.84794E+01
 -1      1092 2.60534E+01 7.93750E+00 5.13765E+01
 -1      1093-1.23647E+01 7.93750E+00 2.23050E+01
 -1      1094 1.21140E+01 7.93750E+00 3.97093E+01
 -1      1095 1.21791E+01 7.93750E+00 1.86280E+01
 -1      1096-2.59664E+01 7.93750E+00 1.72078E+01
 -1      1097 1.72020E+01 7.93750E+00 2.28052E+01
 -1      1098 1.72020E+01 7.93750E+00 1.40765E+01
 -1      1099 6.61870E+00 7.93750E+00 1.40765E+01
 -1      1100 3.98740E+01 7.93750E+00 6.01742E+01
 -1      1101 3.29990E+01 7.93750E+00 5.67496E+01
 -1      1102 1.88586E+01 7.93750E+00 4.08385E+01
 -1      1103 1.71695E+01 7.93750E+00 3.33458E+01
 -1      1104 7.66098E+00 7.93750E+00 3.40943E+01
 -1      1105 1.27165E+01 7.93750E+00 2.77309E+01
 -1      1106 7.69349E+00 7.93750E+00 2.35537E+01
 -1      1107-5.65318E+00 7.93750E+00 1.59150E+01
 -1      1108-1.62365E+01 7.93750E+00 1.59150E+01
 -1      1109-2.20946E+01 7.93750E+00 2.35978E+01
 -1      1110-4.57839E+00 7.93750E+00 2.53922E+01
 -1      1111 2.13313E+00 7.93750E+00 1.90022E+01
 -1      1112 3.05689E+01 7.93750E+00 5.27152E+01
 -1      1113 2.58283E+01 7.93750E+00 4.66721E+01
 -1      1114 1.98274E+01 7.93750E+00 5.27041E+01
 -1      1115 1.96024E+01 7.93750E+00 4.79997E+01
 -1      1116 1.28578E+01 7.93750E+00 4.68705E+01
 -1      1117 2.84835E+01 7.93750E+00 5.54109E+01
 -1      1118-1.53458E+01 7.93750E+00 2.96400E+01
 -1      1119 1.43355E-01 7.93750E+00 3.75116E+01
 -1      1120-7.55948E+00 7.93750E+00 3.27272E+01
 -1      1121 4.59642E+00 7.93750E+00 4.31266E+01
 -1      1122 3.20792E+00-7.93750E+00 2.84794E+01
 -1      1123 2.60534E+01-7.93750E+00 5.13765E+01
 -1      1124-1.23647E+01-7.93750E+00 2.23050E+01
 -1      1125 1.21140E+01-7.93750E+00 3.97093E+01
 -1      1126 1.21791E+01-7.93750E+00 1.86280E+01
 -1      1127-2.59664E+01-7.93750E+00 1.72078E+01
 -1      1128 1.72020E+01-7.93750E+00 2.28052E+01
 -1      1129 1.72020E+01-7.93750E+00 1.40765E+01
 -1      1130 6.61870E+00-7.93750E+00 1.40765E+01
 -1      1131 3.98740E+01-7.93750E+00 6.01742E+01
 -1      1132 3.29990E+01-7.93750E+00 5.67496E+01
 -1      1133 1.88586E+01-7.93750E+00 4.08385E+01
 -1      1134 1.71695E+01-7.93750E+00 3.33458E+01
 -1      1135 7.66098E+00-7.93750E+00 3.40943E+01
 -1      1136 1.27165E+01-7.93750E+00 2.77309E+01
 -1      1137 7.69349E+00-7.93750E+00 2.35537E+01
 -1      1138-5.65318E+00-7.93750E+00 1.59150E+01
 -1      1139-1.62365E+01-7.93750E+00 1.59150E+01
 -1      1140-2.20946E+01-7.93750E+00 2.35978E+01
 -1      1141 2.13313E+00-7.93750E+00 1.90022E+01
 -1      1142-4.57839E+00-7.93750E+00 2.53922E+01
 -1      1143 3.05689E+01-7.93750E+00 5.27152E+01
 -1      1144 2.58283E+01-7.93750E+00 4.66721E+01
 -1      1145 1.98274E+01-7.93750E+00 5.27041E+01
 -1      1146 1.96024E+01-7.93750E+00 4.79997E+01
 -1      1147 1.28578E+01-7.93750E+00 4.68705E+01
 -1      1148 2.84835E+01-7.93750E+00 5.54109E+01
 -1      1149-1.53458E+01-7.93750E+00 2.96400E+01
 -1      1150-7.55948E+00-7.93750E+00 3.27272E+01
 -1      1151 1.43355E-01-7.93750E+00 3.75116E+01
 -1      1152 4.59642E+00-7.93750E+00 4.31266E+01
 -1      1153 2.22250E+01-1.66688E+01 1.82537E+01
 -1      1154 2.22250E+01-2.10344E+01 1.38894E+01
 -1      1155 2.22250E+01-1.23031E+01 1.38894E+01
 -1      1156 2.22250E+01-2.10344E+01 2.26181E+01
 -1      1157 2.22250E+01-1.23031E+01 2.26181E+01
 -1      1158 2.22250E+01 1.66688E+01 1.82537E+01
 -1      1159 2.22250E+01 1.23031E+01 1.38894E+01
 -1      1160 2.22250E+01 2.10344E+01 1.38894E+01
 -1      1161 2.22250E+01 1.23031E+01 2.26181E+01
 -1      1162 2.22250E+01 2.10344E+01 2.26181E+01
 -1      1163 6.71485E+01 6.95261E+00 5.27648E+01
 -1      1164 4.88875E+01 1.68249E+01 4.28710E+01
 -1      1165 5.13361E+01 1.68249E+01 4.50711E+01
 -1      1166 4.78083E+01 1.68249E+01 4.54729E+01
 -1      1167 8.57885E+01 4.58781E+00 5.23875E+01
 -1      1168 7.94740E+01 6.48317E-16 5.23875E+01
 -1      1169 7.33112E+01 3.47631E+00 5.97199E+01
 -1      1170 7.33112E+01 3.47631E+00 4.54324E+01
 -1      1171 7.96258E+01 8.06411E+00 5.97199E+01
 -1      1172 5.62828E+01 6.69595E+00 3.93279E+01
 -1      1173 7.94740E+01-8.31997E+00 5.23875E+01
 -1      1174 7.27702E+01-4.87059E+00 5.23875E+01
 -1      1175 7.27702E+01-1.31906E+01 5.23875E+01
 -1      1176 7.94740E+01-1.66399E+01 5.23875E+01
 -1      1177 6.66074E+01-1.39429E+00 5.97199E+01
 -1      1178 8.61778E+01-1.29537E+01 5.23875E+01
 -1      1179 8.61778E+01-4.63372E+00 5.23875E+01
 -1      1180 6.66074E+01-1.39429E+00 4.54324E+01
 -1      1181 6.53985E+01 6.04732E+00 4.54324E+01
 -1      1182 6.53985E+01 6.04732E+00 5.97199E+01
 -1      1183 5.45823E+01-1.90890E+01 5.21926E+01
 -1      1184 5.28849E+01-2.05704E+01 5.55572E+01
 -1      1185 5.54526E+01-2.39186E+01 4.62220E+01
 -1      1186 5.80098E+01-2.39186E+01 4.76199E+01
 -1      1187 5.54421E+01-2.05704E+01 5.69551E+01
 -1      1188 5.73644E+01-2.39186E+01 4.49313E+01
 -1      1189 6.60664E+01-9.74119E+00 5.23875E+01
 -1      1190 9.21031E+01 9.17561E+00 5.23875E+01
 -1      1191 7.96258E+01 8.06411E+00 4.54324E+01
 -1      1192 5.88431E+01-2.46902E+01 4.76199E+01
 -1      1193 5.81976E+01-2.46902E+01 4.49313E+01
 -1      1194 7.09759E+01 1.12839E+01 4.54324E+01
 -1      1195 9.28816E+01-9.26745E+00 5.23875E+01
 -1      1196 6.16082E+01-1.60892E+01 4.04787E+01
 -1      1197 5.90405E+01-1.27409E+01 4.98139E+01
 -1      1198 6.24680E+01-1.75706E+01 4.52412E+01
 -1      1199 5.04658E+01 1.19953E+01 5.10418E+01
 -1      1200 4.93570E+01 2.05704E+01 5.59589E+01
 -1      1201 5.28849E+01 2.05704E+01 5.55572E+01
 -1      1202 7.09759E+01 1.12839E+01 5.97199E+01
 -1      1203 5.54421E+01 2.05704E+01 5.69551E+01
 -1      1204 5.95815E+01 1.13467E+01 5.71463E+01
 -1      1205 6.30091E+01 1.61763E+01 5.25736E+01
 -1      1206 6.04518E+01 1.61763E+01 5.11757E+01
 -1      1207 6.24414E+01-1.68608E+01 4.04787E+01
 -1      1208 5.13361E+01-1.68250E+01 4.50711E+01
 -1      1209 4.88875E+01-1.68250E+01 4.28710E+01
 -1      1210 4.78082E+01-1.68250E+01 4.54729E+01
 -1      1211 1.02003E+02-4.63372E+00 4.52438E+01
 -1      1212 9.24923E+01-4.59180E-02 5.23875E+01
 -1      1213 1.01614E+02 4.58781E+00 5.95312E+01
 -1      1214 1.01614E+02 4.58781E+00 4.52438E+01
 -1      1215 1.02003E+02-4.63372E+00 5.95312E+01
 -1      1216 3.42561E+01-5.67279E+01 4.44089E-15
 -1      1217 3.42971E+01-5.23543E+01 4.44089E-15
 -1      1218 3.78185E+01-4.85532E+01 4.76250E+00
 -1      1219 3.77537E+01-5.30137E+01-4.76250E+00
 -1      1220 3.77774E+01-5.29267E+01 4.76250E+00
 -1      1221 3.00011E+01-5.24163E+01 3.55271E-15
 -1      1222 5.12842E+01 2.05704E+01 5.91743E+01
 -1      1223 5.12842E+01-2.05704E+01 5.91743E+01
 -1      1224 6.33279E+01-1.75706E+01 4.04787E+01
 -1      1225 5.74917E+01-8.99558E+00 3.93279E+01
 -1      1226 8.34532E+01 1.23954E+01 5.23875E+01
 -1      1227 7.48033E+01 1.56152E+01 5.23875E+01
 -1      1228 5.37007E+01-2.05704E+01 5.82410E+01
 -1      1229 5.37007E+01 2.05704E+01 5.82410E+01
 -1      1230 4.48388E+01 1.68249E+01 4.27228E+01
 -1      1231-3.05230E+01 5.18501E+01-3.55271E-15
 -1      1232-2.72122E+01 5.26501E+01-3.55271E-15
 -1      1233-3.11476E+01 5.75932E+01-4.44089E-01
 -1      1234-3.44585E+01 5.67932E+01-4.44089E-01
 -1      1235 4.93570E+01-2.05704E+01 5.59589E+01
 -1      1236 6.78924E+01-1.99256E+01 5.95302E+01
 -1      1237 7.45962E+01-2.33750E+01 4.52427E+01
 -1      1238 7.45962E+01-2.33750E+01 5.95302E+01
 -1      1239 5.62414E+01 6.53976E+00 6.37890E+01
 -1      1240 5.57357E+01 2.57101E+00 6.43875E+01
 -1      1241 4.83286E+01 3.96875E+00 6.15015E+01
 -1      1242 5.79914E+01 7.44506E+00 5.68339E+01
 -1      1243 5.74857E+01 3.47631E+00 5.74324E+01
 -1      1244 5.54526E+01 2.39186E+01 4.62220E+01
 -1      1245 5.30040E+01 2.39186E+01 4.40219E+01
 -1      1246 2.97983E+01 5.20240E+01 3.55271E-15
 -1      1247 3.40533E+01 5.63356E+01 4.44089E-15
 -1      1248 3.40944E+01 5.19621E+01 4.44089E-15
 -1      1249 8.47566E+01-2.32378E+01 4.52438E+01
 -1      1250 8.47566E+01-2.32378E+01 5.95312E+01
 -1      1251 9.14604E+01-1.95515E+01 5.95312E+01
 -1      1252 3.75509E+01 5.26214E+01-4.76250E+00
 -1      1253 3.78185E+01 4.85532E+01 4.76250E+00
 -1      1254 3.77774E+01 5.29267E+01 4.76250E+00
 -1      1255 5.04658E+01-1.19953E+01 5.10418E+01
 -1      1256-2.64477E+01 6.09574E+01-4.76250E+00
 -1      1257-2.99846E+01 6.01357E+01 4.76250E+00
 -1      1258-2.63057E+01 5.79215E+01-2.66454E-01
 -1      1259-2.51426E+01 6.04641E+01 4.76250E+00
 -1      1260 2.69875E+01-2.10344E+01 1.82537E+01
 -1      1261 2.69875E+01-1.66688E+01 2.26181E+01
 -1      1262 3.65125E+01-1.69333E+01 2.26181E+01
 -1      1263 3.17500E+01-8.20208E+00 2.69824E+01
 -1      1264 3.17500E+01-1.25677E+01 2.26181E+01
 -1      1265-3.49194E+01-5.32092E+01-4.44089E-01
 -1      1266-3.42557E+01-5.64009E+01-4.44089E-01
 -1      1267-3.86435E+01-4.96680E+01 4.76250E+00
 -1      1268-3.79798E+01-5.28597E+01 4.76250E+00
 -1      1269-3.75509E+01-5.24891E+01-4.76250E+00
 -1      1270 2.69875E+01 2.10344E+01 1.82537E+01
 -1      1271 2.69875E+01 1.66688E+01 1.38894E+01
 -1      1272 3.65125E+01 2.07043E+01 1.81996E+01
 -1      1273 3.17500E+01 1.19731E+01 1.38353E+01
 -1      1274 3.17500E+01 1.63387E+01 1.81996E+01
 -1      1275-3.03202E+01-5.14578E+01-3.55271E-15
 -1      1276 6.78924E+01-1.99256E+01 4.52427E+01
 -1      1277 4.83700E+01-4.12499E+00 5.13279E+01
 -1      1278 4.83700E+01 4.12494E+00 5.13279E+01
 -1      1279 5.57357E+01 2.57101E+00 5.01000E+01
 -1      1280 5.62827E+01-1.55398E+00 3.93279E+01
 -1      1281 3.43845E+01-4.73930E+01 4.44089E-15
 -1      1282 3.78411E+01-4.80523E+01-4.76250E+00
 -1      1283 5.74504E+01-8.83934E+00 6.37890E+01
 -1      1284 5.90405E+01-1.27409E+01 6.41014E+01
 -1      1285 5.74504E+01-8.83934E+00 4.95015E+01
 -1      1286 6.76963E+01 2.05076E+01 5.00037E+01
 -1      1287 6.76963E+01 2.05076E+01 4.04787E+01
 -1      1288 7.21821E+01 2.28369E+01 4.52427E+01
 -1      1289 4.88757E+01-8.09374E+00 5.07294E+01
 -1      1290 5.62414E+01-1.39774E+00 4.95015E+01
 -1      1291 4.83286E+01-3.96875E+00 6.15015E+01
 -1      1292 6.38689E+01 1.61763E+01 5.73361E+01
 -1      1293 6.27953E+01 1.61763E+01 5.50745E+01
 -1      1294 1.00246E+02 1.10246E+01 5.95312E+01
 -1      1295 1.00246E+02 1.10246E+01 4.52438E+01
 -1      1296 2.92125E+01 5.63087E+01 2.66454E-15
 -1      1297 9.14604E+01-1.95515E+01 4.52438E+01
 -1      1298 3.00885E+01-4.74550E+01 3.55271E-15
 -1      1299 3.17500E+01 8.33438E+00 1.83532E+01
 -1      1300 3.17500E+01 3.96875E+00 1.39888E+01
 -1      1301 8.24131E+01 2.27283E+01 4.52436E+01
 -1      1302 9.10630E+01 1.95085E+01 5.95311E+01
 -1      1303 9.10630E+01 1.95085E+01 4.52436E+01
 -1      1304 8.24131E+01 2.27283E+01 5.95311E+01
 -1      1305 3.38474E+01 4.66827E+01 4.44089E-15
 -1      1306 3.73040E+01 4.73420E+01-4.76250E+00
 -1      1307 1.00635E+02-1.10705E+01 4.52438E+01
 -1      1308 1.00635E+02-1.10705E+01 5.95312E+01
 -1      1309 5.52283E+01 2.05704E+01 5.94560E+01
 -1      1310 5.77960E+01 2.39186E+01 5.96458E+01
 -1      1311 6.21493E+01 1.46949E+01 5.73361E+01
 -1      1312 2.95514E+01 4.67447E+01 3.55271E-15
 -1      1313 4.48388E+01-1.68250E+01 4.27228E+01
 -1      1314-3.40443E+01-4.79167E+01 4.76250E+00
 -1      1315 6.76963E+01 2.05076E+01 6.42912E+01
 -1      1316 7.21821E+01 2.28369E+01 5.95302E+01
 -1      1317 2.69875E+01-1.66688E+01 1.38894E+01
 -1      1318 3.65125E+01 1.69333E+01 2.26181E+01
 -1      1319 3.17500E+01 1.25677E+01 2.26181E+01
 -1      1320 2.95557E+01 5.97651E+01-4.76250E+00
 -1      1321 2.97822E+01 6.00705E+01 4.76250E+00
 -1      1322 2.49415E+01 6.00435E+01 4.76250E+00
 -1      1323 2.38251E+01 5.12642E+01 2.66454E-15
 -1      1324 1.79831E+01 5.42953E+01 2.66454E-15
 -1      1325 2.43626E+01 5.63911E+01 2.66454E-15
 -1      1326-2.94137E+01-5.67292E+01-2.66454E-01
 -1      1327-2.95557E+01-5.97651E+01-4.76250E+00
 -1      1328-2.51426E+01-6.04641E+01 4.76250E+00
 -1      1329-2.99846E+01-6.01357E+01 4.76250E+00
 -1      1330-2.45638E+01-5.68122E+01-2.66454E-01
 -1      1331-2.47058E+01-5.98481E+01-4.76250E+00
 -1      1332 1.72020E+01 0.00000E+00 1.40765E+01
 -1      1333 6.61870E+00 0.00000E+00 1.40765E+01
 -1      1334 1.21791E+01 0.00000E+00 1.86280E+01
 -1      1335-1.12027E+01 4.26639E+01-1.77636E-01
 -1      1336-1.98680E+01 3.59733E+01-1.77636E-01
 -1      1337-1.35741E+01 3.35320E+01 0.00000E+00
 -1      1338-4.90877E+00 4.02226E+01 0.00000E+00
 -1      1339-2.53183E+01 4.83650E+01-3.55271E-15
 -1      1340 1.97008E+01-4.32872E+01 1.77636E-15
 -1      1341 2.47964E+01-4.89312E+01 3.55271E-15
 -1      1342 2.68696E+01-4.35058E+01 3.55271E-15
 -1      1343 3.79225E+01 1.66688E+01 4.94719E+01
 -1      1344 4.08919E+01 1.66688E+01 5.22220E+01
 -1      1345 4.20008E+01 8.09369E+00 4.73048E+01
 -1      1346 9.11513E-01-5.73883E+01 4.76250E+00
 -1      1347 9.64276E+00-5.73883E+01 4.76250E+00
 -1      1348 9.11513E-01 5.73883E+01 4.76250E+00
 -1      1349 9.64276E+00 5.73883E+01 4.76250E+00
 -1      1350 5.30040E+01-2.39186E+01 4.40219E+01
 -1      1351 2.47057E+01 5.98475E+01-4.76250E+00
 -1      1352 3.65125E+01-1.74672E+01 1.44567E+01
 -1      1353 3.17500E+01-1.31016E+01 1.44567E+01
 -1      1354 3.17500E+01 3.96875E+00 2.27176E+01
 -1      1355-2.28214E+01 3.01797E+01-2.66454E-01
 -1      1356 2.69875E+01 1.66688E+01 2.26181E+01
 -1      1357 3.17500E+01 8.20208E+00 2.69824E+01
 -1      1358 6.33279E+01-1.75706E+01 5.00037E+01
 -1      1359 5.86293E+01 2.46902E+01 5.96458E+01
 -1      1360 6.29825E+01 1.54665E+01 5.73361E+01
 -1      1361 4.77669E+01 1.66688E+01 5.56465E+01
 -1      1362 4.88757E+01 8.09369E+00 5.07294E+01
 -1      1363 1.83263E+01 5.77518E+01-4.76250E+00
 -1      1364 3.88136E+01-2.11396E+01 3.50931E+01
 -1      1365 3.80140E+01-1.69333E+01 3.16210E+01
 -1      1366 3.01781E+01-1.66688E+01 3.91136E+01
 -1      1367 3.42388E+01-1.24083E+01 3.79472E+01
 -1      1368 3.31819E+01-1.66688E+01 4.34288E+01
 -1      1369 4.18175E+01-2.11396E+01 3.94083E+01
 -1      1370 3.31819E+01 1.66688E+01 4.34288E+01
 -1      1371 3.01781E+01 1.66688E+01 3.91136E+01
 -1      1372 3.88137E+01 2.11396E+01 3.50931E+01
 -1      1373 3.42388E+01 1.24083E+01 3.79472E+01
 -1      1374 4.18175E+01 2.11396E+01 3.94083E+01
 -1      1375 2.45336E+01 1.69690E+01 0.00000E+00
 -1      1376 3.17500E+01 2.22250E+01 0.00000E+00
 -1      1377 3.17500E+01 1.65189E+01 8.38659E+00
 -1      1378 3.40586E+01 8.08784E+00-1.13841E+00
 -1      1379 3.17500E+01 7.78762E+00 8.38659E+00
 -1      1380 3.65125E+01 1.65189E+01 1.27509E+01
 -1      1381-1.76848E+01-5.37862E+01-1.77636E-01
 -1      1382-1.71473E+01-4.86588E+01-1.77636E-01
 -1      1383-2.40263E+01-5.16848E+01-2.66454E-01
 -1      1384 7.86567E-01-8.06221E+00 0.00000E+00
 -1      1385-5.89773E+00-4.07405E+00 0.00000E+00
 -1      1386 2.83739E-01-3.39239E-01 0.00000E+00
 -1      1387 3.16245E+01 4.13193E+01 3.55271E-15
 -1      1388 3.55956E+01 4.31897E+01 4.76250E+00
 -1      1389 6.33279E+01-1.75706E+01 6.42912E+01
 -1      1390 1.00666E+00 5.39660E+01-4.76250E+00
 -1      1391-7.72459E+00 5.39660E+01-4.76250E+00
 -1      1392 1.91817E+00 4.78543E+01 8.88178E-16
 -1      1393-1.00858E+00-5.39835E+01-4.76250E+00
 -1      1394 7.72267E+00-5.39835E+01-4.76250E+00
 -1      1395 8.63418E+00-4.78718E+01 8.88178E-16
 -1      1396 3.89794E+01 1.24083E+01 4.39903E+01
 -1      1397 3.21616E+01-4.20296E+01 3.55271E-15
 -1      1398 6.92914E+00-4.10871E+00 0.00000E+00
 -1      1399 3.17500E+01-8.73594E+00 1.00924E+01
 -1      1400-2.34798E+01-3.41102E-01-2.66454E-01
 -1      1401-2.31714E+01 9.95840E+00-2.66454E-01
 -1      1402-3.06917E+01 3.96875E+00-2.66454E-01
 -1      1403 2.45336E+01 8.23773E+00 0.00000E+00
 -1      1404 3.55956E+01-4.31897E+01 4.76250E+00
 -1      1405 2.44109E+01 4.69796E+01 3.55271E-15
 -1      1406-2.44118E+01 5.36364E+01-2.66454E-01
 -1      1407 3.80140E+01 1.69333E+01 3.16210E+01
 -1      1408 2.22250E+01 0.00000E+00 2.69824E+01
 -1      1409 3.17500E+01-3.96875E+00 2.27176E+01
 -1      1410 3.17500E+01-2.64583E-01 2.69824E+01
 -1      1411 3.17500E+01-1.69333E+01 2.69824E+01
 -1      1412 3.17500E+01-8.73594E+00 1.88211E+01
 -1      1413 5.80328E+01 7.60125E+00 4.66603E+01
 -1      1414 1.68031E+01 4.86090E+01 8.88178E-16
 -1      1415-1.31967E+01-3.79756E+01-1.77636E-01
 -1      1416-1.93697E+01-4.34187E+01-1.77636E-01
 -1      1417-2.14616E+01-3.55160E+01-1.77636E-01
 -1      1418-9.98691E+00 5.74381E+01 4.76250E+00
 -1      1419-9.98691E+00-5.74381E+01 4.76250E+00
 -1      1420-1.82636E+01-5.74381E+01 4.76250E+00
 -1      1421 2.39141E+01 0.00000E+00 3.44750E+01
 -1      1422 3.34391E+01-8.20208E+00 3.44750E+01
 -1      1423 2.64841E+01 4.15542E+01 3.55271E-15
 -1      1424 1.93153E+01 4.13356E+01 1.77636E-15
 -1      1425-1.13056E+01-5.16928E+01-1.77636E-01
 -1      1426-1.00499E+01-5.77547E+01-4.76250E+00
 -1      1427-2.26424E+00-4.79216E+01-1.77636E-01
 -1      1428-1.97552E+01 4.53703E+01-1.77636E-01
 -1      1429-2.54311E+01 3.89681E+01-3.55271E-15
 -1      1430 1.72020E+01 0.00000E+00 2.28052E+01
 -1      1431 1.27165E+01 0.00000E+00 2.77309E+01
 -1      1432 7.69349E+00 0.00000E+00 2.35537E+01
 -1      1433 2.22250E+01 0.00000E+00 1.82537E+01
 -1      1434-3.00733E+01-4.61785E+01-3.55271E-15
 -1      1435-2.49328E+01-4.64134E+01-3.55271E-15
 -1      1436-2.70247E+01-3.85108E+01-3.55271E-15
 -1      1437-1.64811E+01-4.07405E+00-2.66454E-01
 -1      1438-2.01083E+01 0.00000E+00 9.52500E+00
 -1      1439-1.64811E+01 3.86345E+00-2.66454E-01
 -1      1440-9.52500E+00 0.00000E+00 9.52500E+00
 -1      1441 1.05833E+00 0.00000E+00 9.52500E+00
 -1      1442-5.89773E+00 3.86345E+00 0.00000E+00
 -1      1443-3.73040E+01-4.72097E+01-4.76250E+00
 -1      1444 1.16417E+01 0.00000E+00 9.52500E+00
 -1      1445 1.75125E+01 3.82879E+00 0.00000E+00
 -1      1446 6.92914E+00 3.82879E+00 0.00000E+00
 -1      1447 1.75125E+01-4.10871E+00 0.00000E+00
 -1      1448 2.22250E+01 0.00000E+00 9.52500E+00
 -1      1449 1.00496E+01 5.77518E+01-4.76250E+00
 -1      1450 1.09611E+01 5.16401E+01 8.88178E-16
 -1      1451 2.83739E-01 7.59826E+00 0.00000E+00
 -1      1452 6.70591E+00 1.26265E+01 0.00000E+00
 -1      1453 2.47304E+01 2.77681E+01 0.00000E+00
 -1      1454-1.09743E+01-4.32158E+01-1.77636E-01
 -1      1455-6.90278E+00-3.55343E+01 0.00000E+00
 -1      1456-3.37548E+01 9.95840E+00 0.00000E+00
 -1      1457-3.40631E+01-3.41102E-01 0.00000E+00
 -1      1458 3.89794E+01-1.24083E+01 4.39903E+01
 -1      1459 3.79225E+01-1.66688E+01 4.94719E+01
 -1      1460-2.34798E+01-8.27860E+00-2.66454E-01
 -1      1461-3.06917E+01 0.00000E+00 9.52500E+00
 -1      1462 4.08919E+01-1.66688E+01 5.22220E+01
 -1      1463 4.20007E+01-8.09374E+00 4.73048E+01
 -1      1464 3.37548E+01-1.07568E+01 5.67369E-01
 -1      1465 2.42298E+01-9.95840E+00 0.00000E+00
 -1      1466 2.42298E+01-1.86897E+01 0.00000E+00
 -1      1467 3.17500E+01-1.74672E+01 1.00924E+01
 -1      1468 1.72892E+01 1.26265E+01 0.00000E+00
 -1      1469-8.98026E+00 4.79041E+01-1.77636E-01
 -1      1470 2.84890E+01-1.66688E+01 3.16210E+01
 -1      1471-3.73040E+01-4.31087E+01 0.00000E+00
 -1      1472-3.42554E+01-3.54410E+01 0.00000E+00
 -1      1473 3.17500E+01-3.96875E+00 1.39888E+01
 -1      1474-3.40631E+01-8.27860E+00 0.00000E+00
 -1      1475 2.49415E+01-6.00435E+01 4.76250E+00
 -1      1476 1.66648E+01-6.00435E+01 4.76250E+00
 -1      1477 1.66648E+01 6.00435E+01 4.76250E+00
 -1      1478 2.13313E+00 0.00000E+00 1.90022E+01
 -1      1479 1.98117E+01-3.39078E+01 1.77636E-15
 -1      1480 2.69804E+01-3.41264E+01 3.55271E-15
 -1      1481 4.20008E+01 1.56189E-01 4.73048E+01
 -1      1482 3.72602E+01 8.09369E+00 4.12617E+01
 -1      1483 3.03438E+01 0.00000E+00 4.80108E+01
 -1      1484 3.50844E+01 0.00000E+00 5.40539E+01
 -1      1485 1.71886E+01-5.05606E+01 8.88178E-16
 -1      1486 2.45336E+01 3.00225E-01 0.00000E+00
 -1      1487 3.17500E+01-1.49884E-01 8.38659E+00
 -1      1488 4.77669E+01-1.66688E+01 5.56465E+01
 -1      1489 3.17500E+01-3.96875E+00 0.00000E+00
 -1      1490 3.34391E+01-2.64583E-01 3.44750E+01
 -1      1491 3.72601E+01-1.56237E-01 4.12617E+01
 -1      1492 3.34391E+01 8.20208E+00 3.44750E+01
 -1      1493 2.85759E+01 3.36516E+01 3.55271E-15
 -1      1494 2.14072E+01 3.34330E+01 1.77636E-15
 -1      1495 2.60534E+01 0.00000E+00 5.13765E+01
 -1      1496 1.98274E+01 0.00000E+00 5.27041E+01
 -1      1497 2.84835E+01 0.00000E+00 5.54109E+01
 -1      1498 2.56032E+01 0.00000E+00 4.19677E+01
 -1      1499 3.72601E+01-8.09374E+00 4.12617E+01
 -1      1500-3.03328E+00 2.96228E+01 0.00000E+00
 -1      1501-3.06107E+01 4.68863E+01-3.55271E-15
 -1      1502-3.78414E+01 4.38165E+01 0.00000E+00
 -1      1503-3.26618E+01 3.58983E+01 0.00000E+00
 -1      1504 1.02297E+01 1.99097E+01 8.88178E-16
 -1      1505 3.80755E+00 1.48814E+01 8.88178E-16
 -1      1506 7.11494E+00-1.14141E+01 0.00000E+00
 -1      1507 1.11463E+01-4.05984E+01 1.77636E-15
 -1      1508 1.80724E+00-4.02401E+01 0.00000E+00
 -1      1509-7.97884E-02-2.97454E+01 0.00000E+00
 -1      1510 9.25932E+00-3.01036E+01 1.77636E-15
 -1      1511 2.97822E+01-6.00705E+01 4.76250E+00
 -1      1512 2.97585E+01-6.01574E+01-4.76250E+00
 -1      1513 3.45787E+01-6.01574E+01 0.00000E+00
 -1      1514 5.52299E+00-2.29907E+01 8.88178E-16
 -1      1515 1.71695E+01 0.00000E+00 3.33458E+01
 -1      1516 7.66098E+00 0.00000E+00 3.40943E+01
 -1      1517 1.21140E+01 0.00000E+00 3.97093E+01
 -1      1518 1.31397E+01 3.58687E+01 1.77636E-15
 -1      1519 1.34733E+01 4.43666E+01 1.77636E-15
 -1      1520 1.76983E+01-1.14141E+01 0.00000E+00
 -1      1521-3.55881E+00-2.21609E+01-8.88178E-01
 -1      1522-1.12678E+01-1.91830E+01-8.88178E-01
 -1      1523-4.77142E+00-1.45156E+01-8.88178E-01
 -1      1524 2.31349E+01-2.82429E+01 0.00000E+00
 -1      1525 1.60753E+01-2.67948E+01 8.88178E-16
 -1      1526-7.23412E+00-4.40113E+01 0.00000E+00
 -1      1527 2.42106E+01-5.32158E+01 2.66454E-15
 -1      1528 3.42554E+01 2.77681E+01 0.00000E+00
 -1      1529 2.56950E+00 2.28681E+01 8.88178E-16
 -1      1530 3.17500E+01-2.22250E+01 0.00000E+00
 -1      1531-1.83266E+01-5.77547E+01-4.76250E+00
 -1      1532-1.62365E+01 0.00000E+00 1.59150E+01
 -1      1533-5.65318E+00 0.00000E+00 1.59150E+01
 -1      1534-1.23647E+01 0.00000E+00 2.23050E+01
 -1      1535 1.76983E+01-2.01454E+01 0.00000E+00
 -1      1536 1.06388E+01-1.86973E+01 8.88178E-16
 -1      1537 1.72892E+01 2.13578E+01 0.00000E+00
 -1      1538 4.14537E+01-3.96875E+00 5.80770E+01
 -1      1539 4.14537E+01 3.96875E+00 5.80770E+01
 -1      1540 3.26599E+01-2.82429E+01 0.00000E+00
 -1      1541 3.17500E+01 1.69333E+01 2.69824E+01
 -1      1542 7.00317E+01-2.10200E+01 6.42912E+01
 -1      1543 7.00317E+01-2.10200E+01 4.04787E+01
 -1      1544 9.40334E+00 2.87558E+01 8.88178E-16
 -1      1545 1.64629E+01 3.02038E+01 0.00000E+00
 -1      1546-1.16883E+01 1.77532E+01-8.88178E-01
 -1      1547-6.51230E+00 2.20383E+01-8.88178E-01
 -1      1548-5.27425E+00 1.40516E+01-8.88178E-01
 -1      1549 4.31038E+00-1.53454E+01 8.88178E-16
 -1      1550-2.08479E+01-1.77816E+01-3.55271E-15
 -1      1551-2.82268E+01-2.40888E+01-3.55271E-15
 -1      1552-2.80345E+01-1.33305E+01-3.55271E-15
 -1      1553-1.75328E+01 5.06104E+01-1.77636E-01
 -1      1554 5.40475E+01 2.05704E+01 5.98630E+01
 -1      1555-2.39144E+01 2.06440E+01-2.66454E-01
 -1      1556-2.77262E+01 1.50103E+01-3.55271E-15
 -1      1557-2.12684E+01 1.63518E+01-3.55271E-15
 -1      1558-1.74566E+01 2.19854E+01-2.66454E-01
 -1      1559-4.57839E+00 0.00000E+00 2.53922E+01
 -1      1560-1.53458E+01 0.00000E+00 2.96400E+01
 -1      1561-7.55948E+00 0.00000E+00 3.27272E+01
 -1      1562-9.54310E-01 1.55849E+01 0.00000E+00
 -1      1563-1.62932E+01-1.27296E+01-2.66454E-01
 -1      1564 2.58283E+01 0.00000E+00 4.66721E+01
 -1      1565 3.05689E+01 0.00000E+00 5.27152E+01
 -1      1566-1.61501E+01-3.21820E+01-2.66454E-01
 -1      1567-2.44150E+01-2.97224E+01-2.66454E-01
 -1      1568 3.68237E+01-5.92275E+01 8.88178E-16
 -1      1569-1.67136E+01 1.12998E+01-2.66454E-01
 -1      1570 3.46024E+01 6.00705E+01 4.44089E-15
 -1      1571-3.48048E+01-6.01357E+01-4.44089E-01
 -1      1572 3.55956E+01 3.76335E+01 3.55271E-15
 -1      1573 2.45538E+01-5.66723E+01-4.76250E+00
 -1      1574 1.62771E+01-5.66723E+01-4.76250E+00
 -1      1575-1.70361E+01-2.34152E+01-2.66454E-01
 -1      1576 5.62414E+01 6.53976E+00 6.44134E+01
 -1      1577-3.48048E+01 6.01357E+01-4.44089E-01
 -1      1578-3.70498E+01 5.92058E+01-4.44089E-01
 -1      1579 3.55956E+01-3.76335E+01 3.55271E-15
 -1      1580 3.80056E+00 3.55105E+01 0.00000E+00
 -1      1581-1.03818E+01-2.79498E+01-8.88178E-01
 -1      1582 2.84890E+01 1.66688E+01 3.16210E+01
 -1      1583 5.74504E+01-8.83934E+00 6.44134E+01
 -1      1584 4.59642E+00 0.00000E+00 4.31266E+01
 -1      1585 1.88586E+01 0.00000E+00 4.08385E+01
 -1      1586-1.62771E+01 5.66723E+01-4.76250E+00
 -1      1587-2.66332E+01 2.45461E+01-3.55271E-15
 -1      1588-2.20946E+01 0.00000E+00 2.35978E+01
 -1      1589-1.82636E+01 5.74381E+01 4.76250E+00
 -1      1590 3.20792E+00 0.00000E+00 2.84794E+01
 -1      1591 6.24414E+01-1.68608E+01 6.42912E+01
 -1      1592 6.16082E+01-1.60892E+01 6.42912E+01
 -1      1593-3.26618E+01 2.76962E+01 0.00000E+00
 -1      1594 3.68475E+01 5.91405E+01 4.44089E-15
 -1      1595-3.52464E+01 1.85457E+01-3.55271E-15
 -1      1596-3.70498E+01-5.92058E+01-4.44089E-01
 -1      1597-2.59664E+01 0.00000E+00 1.72078E+01
 -1      1598-3.78414E+01 4.79175E+01-4.76250E+00
 -1      1599 1.28578E+01 0.00000E+00 4.68705E+01
 -1      1600 5.76077E+01 2.39186E+01 6.08784E+01
 -1      1601 5.66152E+01 2.39186E+01 6.00528E+01
 -1      1602 5.66152E+01-2.39186E+01 6.00528E+01
 -1      1603 5.76077E+01-2.39186E+01 6.08784E+01
 -1      1604 5.77960E+01-2.39186E+01 5.96458E+01
 -1      1605 6.03992E+01 1.37896E+01 4.04787E+01
 -1      1606 5.81528E+01 1.09771E+01 3.93022E+01
 -1      1607-3.52464E+01-1.85457E+01-3.55271E-15
 -1      1608 1.43355E-01 0.00000E+00 3.75116E+01
 -1      1609-3.42554E+01-2.72389E+01 0.00000E+00
 -1      1610 5.84410E+01 2.46902E+01 6.08784E+01
 -1      1611 5.84410E+01-2.46902E+01 6.08784E+01
 -1      1612 5.86293E+01-2.46902E+01 5.96458E+01
 -1      1613 5.62414E+01-1.39774E+00 6.44134E+01
 -1      1614 5.62414E+01-1.39774E+00 6.37890E+01
 -1      1615 5.78315E+01 1.04414E+01 6.41014E+01
 -1      1616 2.64477E+01-6.09574E+01-4.76250E+00
 -1      1617 1.96024E+01-4.44089E-01 4.79997E+01
 -1      1618-3.86435E+01 4.96680E+01 4.76250E+00
 -1      1619 5.93618E+01-1.32767E+01 3.93022E+01
 -1      1620-3.79798E+01 5.28597E+01 4.76250E+00
 -1      1621 3.29990E+01 0.00000E+00 5.67496E+01
 -1      1622-3.77537E+01 5.28814E+01-4.76250E+00
 -1      1623 5.73644E+01 2.39186E+01 4.49313E+01
 -1      1624 5.81976E+01 2.46902E+01 4.49313E+01
 -1      1625 5.62684E+01-2.39186E+01 5.84308E+01
 -1      1626 5.80098E+01-2.39186E+01 5.71449E+01
 -1      1627 5.88431E+01-2.46902E+01 5.71449E+01
 -1      1628 5.79914E+01-4.92443E-01 5.68339E+01
 -1      1629-3.45461E+01 5.18293E+01-4.44089E-01
 -1      1630-3.52099E+01 4.86377E+01-4.44089E-01
 -1      1631 2.94153E+01-5.67010E+01 2.66454E-15
 -1      1632 6.21493E+01 1.46949E+01 4.78111E+01
 -1      1633 5.80098E+01 2.39186E+01 4.76199E+01
 -1      1634 5.88431E+01 2.46902E+01 4.76199E+01
 -1      1635 6.38689E+01 1.61763E+01 4.78111E+01
 -1      1636 6.29825E+01 1.54665E+01 4.78111E+01
 -1      1637 6.12325E+01 1.45612E+01 6.42912E+01
 -1      1638 6.03992E+01 1.37896E+01 6.42912E+01
 -1      1639 5.38519E+01-2.39186E+01 5.93641E+01
 -1      1640-1.94266E+01 5.48955E+01-1.77636E-01
 -1      1641-1.81710E+01 6.09574E+01-4.76250E+00
 -1      1642 6.12325E+01 1.45612E+01 4.04787E+01
 -1      1643 6.21189E+01 1.52710E+01 4.04787E+01
 -1      1644-1.14557E+01-1.05274E+01-8.88178E-01
 -1      1645-1.14557E+01 1.03168E+01-8.88178E-01
 -1      1646 6.21189E+01 1.52710E+01 6.42912E+01
 -1      1647 4.43033E+00 4.05809E+01 1.77636E-15
 -1      1648-1.22806E+01 2.62705E+01-2.66454E-01
 -1      1649-3.79798E+01 5.69607E+01-4.44089E-01
 -1      1650-3.79798E+01-5.69607E+01-4.44089E-01
 -1      1651 3.77537E+01-5.69824E+01 0.00000E+00
 -1      1652 6.24414E+01-1.68608E+01 5.00037E+01
 -1      1653 6.16082E+01-1.60892E+01 5.00037E+01
 -1      1654 3.77774E+01 5.68955E+01 4.44089E-15
 -3
    3C                           779                                     1
 -1       744    6    0    1
 -2      1036      1043       240      1034      1072      1164      1165      1088      1089      1166
 -1       745    6    0    1
 -2       868       903       908      1163      1168       934      1167      1170      1169      1171
 -1       746    6    0    1
 -2       872       224       225       240       885       234       886      1172       862       861
 -1       747    6    0    1
 -2       903       906       909       868       933       929       937      1168      1173      1174
 -1       748    6    0    1
 -2       906       871       909       868      1176      1175       929      1173       898      1174
 -1       749    6    0    1
 -2       909       903       868      1163       937      1168      1174      1177      1169      1170
 -1       750    6    0    1
 -2       904       871       906       868      1178      1176       931      1179       898      1173
 -1       751    6    0    1
 -2       903       904       906       868       932       931       933      1168      1179      1173
 -1       752    6    0    1
 -2       872       874       868      1163       890       902       900      1181      1180      1170
 -1       753    6    0    1
 -2       907       903       909      1163       935       937       925      1182      1169      1177
 -1       754    6    0    1
 -2       908       904       903       868       914       932       934      1167      1179      1168
 -1       755    6    0    1
 -2       976        39       184       971      1185      1183      1184      1021      1186      1187
 -1       756    6    0    1
 -2       972       976       971        39      1010      1021      1007      1188      1185      1186
 -1       757    6    0    1
 -2       871       874       909       868       894      1189      1175       898       902      1174
 -1       758    6    0    1
 -2       868       908       873      1163      1167      1190       899      1170      1171      1191
 -1       759    6    0    1
 -2       874       909       868      1163      1189      1174       902      1180      1177      1170
 -1       760    6    0    1
 -2       261       972       971        39      1193      1007      1192       262      1188      1186
 -1       761    6    0    1
 -2       873       870       868      1163       883       901       899      1191      1194      1170
 -1       762    6    0    1
 -2       904       869       871       868      1195       896      1178      1179       897       898
 -1       763    6    0    1
 -2       874       184        39       971      1197      1183      1196      1198      1187      1186
 -1       764    6    0    1
 -2      1034       240      1036       169      1166      1165      1088      1200      1199      1201
 -1       765    6    0    1
 -2       908       903       905      1163       934       936       918      1171      1169      1202
 -1       766    6    0    1
 -2      1031       169      1036      1163      1203      1201      1083      1205      1204      1206
 -1       767    6    0    1
 -2        39       971       261       874      1186      1192       262      1196      1198      1207
 -1       768    6    0    1
 -2       983       976       241       973      1012      1208      1209      1027      1025      1210
 -1       769    6    0    1
 -2       908       218       869       873      1213      1211      1212      1190      1214       879
 -1       770    6    0    1
 -2       218       869       904       908      1211      1195      1215      1213      1212       914
 -1       771    6    0    1
 -2       370       701       694       569      1217       725      1216      1219      1218      1220
 -1       772    6    0    1
 -2       694       691       701       370       763       764       725      1216      1221      1217
 -1       773    6    0    1
 -2       174        29       169      1035       177       777       779      1054      1055      1222
 -1       774    6    0    1
 -2        36       194       184       975       197       785       787       996       995      1223
 -1       775    6    0    1
 -2       868       908       869       873      1167      1212       897       899      1190       879
 -1       776    6    0    1
 -2       908       869       904       868      1212      1195       914      1167       897      1179
 -1       777    6    0    1
 -2        46       261       971       874       263      1192      1001      1224      1207      1198
 -1       778    6    0    1
 -2       874       225       226       241       888       235       889      1225       864       863
 -1       779    6    0    1
 -2       908       870       873      1163      1226       883      1190      1171      1194      1191
 -1       780    6    0    1
 -2       908       905       870      1163       918      1227      1226      1171      1202      1194
 -1       781    6    0    1
 -2       975       184       977       976      1223      1228      1030      1026      1184      1024
 -1       782    6    0    1
 -2      1036      1035       169      1037      1087      1222      1201      1084      1090      1229
 -1       783    6    0    1
 -2      1041       240      1043      1034      1230      1164      1080      1078      1166      1089
 -1       784    6    0    1
 -2       603       384       369       606      1232       404      1231       670      1233      1234
 -1       785    6    0    1
 -2      1036       169      1035      1034      1201      1222      1087      1088      1200      1076
 -1       786    6    0    1
 -2       976       975       184       973      1026      1223      1184      1025      1017      1235
 -1       787    6    0    1
 -2       871       909       795       906      1175      1236      1237      1176       929      1238
 -1       788    6    0    1
 -2       253        28       907      1163      1241      1239      1240      1243      1242      1182
 -1       789    6    0    1
 -2      1036       240      1043        40      1165      1164      1072      1244       242      1245
 -1       790    6    0    1
 -2       607       604       371       614       675      1246      1247       634       677      1248
 -1       791    6    0    1
 -2       906       794       871       904      1250      1249      1176       931      1251      1178
 -1       792    6    0    1
 -2       614       371       607       568      1248      1247       634      1253      1252      1254
 -1       793    6    0    1
 -2       973       976       241       184      1025      1208      1210      1235      1184      1255
 -1       794    6    0    1
 -2       606       384       317       611      1233      1256      1257       625      1258      1259
 -1       795    6    0    1
 -2        34       979      1153       146      1261      1260      1157      1263      1262      1264
 -1       796    6    0    1
 -2       693       699       368       545       712      1265      1266      1268      1267      1269
 -1       797    6    0    1
 -2       261       971       972        46      1192      1007      1193       263      1001      1005
 -1       798    6    0    1
 -2       606       603       384       611       670      1232      1233       625       669      1258
 -1       799    6    0    1
 -2        23      1039      1158       567      1271      1270      1159      1273      1272      1274
 -1       800    6    0    1
 -2       699       368       690       693      1265      1275       749       712      1266       756
 -1       801    6    0    1
 -2       874       909       795       871      1189      1236      1276       894      1175      1237
 -1       802    6    0    1
 -2       240       253       241       872      1278      1277       243      1172      1279      1280
 -1       803    6    0    1
 -2       380       701       370       569      1281      1217       435      1282      1218      1219
 -1       804    6    0    1
 -2       909       184        32       874      1284       185      1283      1189      1197      1285
 -1       805    6    0    1
 -2       870        41        42       793      1287       248      1286      1288       828       827
 -1       806    6    0    1
 -2       874       241        32       872      1225      1289      1285       890      1280      1290
 -1       807    6    0    1
 -2       253        32       241       872      1291      1289      1277      1279      1290      1280
 -1       808    6    0    1
 -2      1031        42      1032      1163      1060      1066      1065      1205      1292      1293
 -1       809    6    0    1
 -2       908       791       218       873      1294       811      1213      1190      1295      1214
 -1       810    6    0    1
 -2       607       371       604       610      1247      1246       675       638      1296       676
 -1       811    6    0    1
 -2       794       869       871       904      1297       896      1249      1251      1195      1178
 -1       812    6    0    1
 -2       370       691       701       380      1221       764      1217       435      1298      1281
 -1       813    6    0    1
 -2       570        23      1158       567      1300      1159      1299       601      1273      1274
 -1       814    6    0    1
 -2       908       870       796       873      1226      1301      1302      1190       883      1303
 -1       815    6    0    1
 -2       796       905       870       908      1304      1227      1301      1302       918      1226
 -1       816    6    0    1
 -2       614       378       371       568      1305       422      1248      1253      1306      1252
 -1       817    6    0    1
 -2       904       792       869       218      1308      1307      1195      1215       812      1211
 -1       818    6    0    1
 -2        27       169      1032      1163       170      1309      1310      1311      1204      1293
 -1       819    6    0    1
 -2       371       604       378       614      1246      1312       422      1248       677      1305
 -1       820    6    0    1
 -2       981       983       241       973      1020      1209      1313      1018      1027      1210
 -1       821    6    0    1
 -2       699       690       368       545       749      1275      1265      1267      1314      1269
 -1       822    6    0    1
 -2       905       870        42       793      1227      1286      1315      1316      1288       827
 -1       823    6    0    1
 -2        24      1039      1158        23      1046      1270      1160       160      1271      1159
 -1       824    6    0    1
 -2       979        26        25      1153      1317       163       991      1260      1155      1154
 -1       825    6    0    1
 -2       567      1039      1158       147      1272      1270      1274       587      1318      1319
 -1       826    6    0    1
 -2       607       316       371       610      1321      1320      1247       638      1322      1296
 -1       827    6    0    1
 -2       382       362       386       610       510       506       444      1324      1323      1325
 -1       828    6    0    1
 -2       340       698       368       693      1328      1326      1327      1329       716      1266
 -1       829    6    0    1
 -2       698       368       385       340      1326       417      1330      1328      1327      1331
 -1       830    6    0    1
 -2       156      1126        23      1095      1333      1332       159      1099      1334      1098
 -1       831    6    0    1
 -2       620       375       372       605      1336       480      1335       685      1337      1338
 -1       832    6    0    1
 -2       241        39       184       976       244      1183      1255      1208      1185      1184
 -1       833    6    0    1
 -2       364       384       369       603       440       404       520      1339      1232      1231
 -1       834    6    0    1
 -2       691       705       704       365       766       736       768      1341      1340      1342
 -1       835    6    0    1
 -2      1034       180      1041       240      1344      1343      1078      1166      1345      1230
 -1       836    6    0    1
 -2       103       337       696       338       357      1346       742       358       354      1347
 -1       837    6    0    1
 -2       609       314       315        82      1349       331      1348       654       330       326
 -1       838    6    0    1
 -2       983       241       976        39      1209      1208      1012      1350       244      1185
 -1       839    6    0    1
 -2       874        39       184       241      1196      1183      1197      1225       244      1255
 -1       840    6    0    1
 -2       316       386       371       610      1351       426      1320      1322      1325      1296
 -1       841    6    0    1
 -2       240       241       225       872       243       864       861      1172      1280       886
 -1       842    6    0    1
 -2       698       690       368       693       757      1275      1326       716       756      1266
 -1       843    6    0    1
 -2      1153       979       566       146      1260      1352      1353      1264      1262       590
 -1       844    6    0    1
 -2        23      1158        31       570      1159      1161       300      1300      1299      1354
 -1       845    6    0    1
 -2       608       375       620       605      1355      1336       671       682      1337       685
 -1       846    6    0    1
 -2      1158      1039        31       147      1270      1356      1161      1319      1318      1357
 -1       847    6    0    1
 -2       795        45       874        46       841      1358      1276       840       260      1224
 -1       848    6    0    1
 -2       868       870       872      1163       901       887       900      1170      1194      1181
 -1       849    6    0    1
 -2       249        27      1032      1163       251      1310      1359      1360      1311      1293
 -1       850    6    0    1
 -2      1034       169        28       240      1200       171      1361      1166      1199      1362
 -1       851    6    0    1
 -2       382       386       316       610       444      1351      1363      1324      1325      1322
 -1       852    6    0    1
 -2       953        21       980       146       959       989      1364       958       148      1365
 -1       853    6    0    1
 -2        35       979      1153        34       986      1260      1156       192      1261      1157
 -1       854    6    0    1
 -2      1158        31      1039        30      1161      1356      1270      1162       178      1047
 -1       855    6    0    1
 -2       953       187       980       981      1367      1366      1364      1369      1368      1015
 -1       856    6    0    1
 -2       179      1040      1041       954      1371      1075      1370      1373      1372      1374
 -1       857    6    0    1
 -2       112        24       390       565      1376      1375       460       583      1377      1378
 -1       858    6    0    1
 -2       567        23      1039       565      1273      1271      1272       586      1379      1380
 -1       859    6    0    1
 -2       700       363       385       698      1382       514      1381       740      1383      1330
 -1       860    6    0    1
 -2       184       874       241        32      1197      1225      1255       185      1285      1289
 -1       861    6    0    1
 -2       367       165       399       392      1385      1384       542       541      1386       533
 -1       862    6    0    1
 -2       617       378       614       568      1387      1305       664      1388      1306      1253
 -1       863    6    0    1
 -2       614       604       378       617       677      1312      1305       664       681      1387
 -1       864    6    0    1
 -2       909        45       874       795      1389      1358      1189      1236       841      1276
 -1       865    6    0    1
 -2       315       372       314       609      1391      1390       331      1348      1392      1349
 -1       866    6    0    1
 -2       338       337       696       373       354      1346      1347      1394      1393      1395
 -1       867    6    0    1
 -2       954      1041       180       240      1374      1343      1396       969      1230      1345
 -1       868    6    0    1
 -2       691       704       701       380       768       751       764      1298      1397      1281
 -1       869    6    0    1
 -2        89       372       314       315       436      1390       336       333      1391       331
 -1       870    6    0    1
 -2       338        96       337       373       353       349       354      1394       449      1393
 -1       871    6    0    1
 -2       366       399       165       392       534      1384      1398       532       533      1386
 -1       872    6    0    1
 -2       112        19        24       565       582       161      1376       583       584      1377
 -1       873    6    0    1
 -2       979       566        26      1153      1352      1399      1317      1260      1353      1155
 -1       874    6    0    1
 -2       155       388       391       122      1401       475      1400      1402       474       470
 -1       875    6    0    1
 -2        23       390        24       565      1403      1375       160      1379      1378      1377
 -1       876    6    0    1
 -2       380       704       701       569      1397       751      1281      1282      1404      1218
 -1       877    6    0    1
 -2       378       371       362       604       422       505       504      1312      1246      1405
 -1       878    6    0    1
 -2       603       364       384       611      1339       440      1232       669      1406      1258
 -1       879    6    0    1
 -2       954      1040        20       147      1372      1050       955       956      1407       150
 -1       880    6    0    1
 -2       567      1039        19       565      1272      1045       580       586      1380       584
 -1       881    6    0    1
 -2       570        31        34       146      1354      1408      1409       599      1410      1263
 -1       882    6    0    1
 -2        34       146        35       979      1263      1411       192      1261      1262       986
 -1       883    6    0    1
 -2        34      1153       566       146      1157      1353      1412      1263      1264       590
 -1       884    6    0    1
 -2       794       871       795       906      1249      1237       856      1250      1176      1238
 -1       885    6    0    1
 -2       240       169        28      1163      1199       171      1362      1413      1204      1242
 -1       886    6    0    1
 -2       609       604       362       610       678      1405      1414       657       676      1323
 -1       887    6    0    1
 -2       363       707       394       377      1416      1415       517       515      1417       516
 -1       888    6    0    1
 -2       609       315       613        82      1348      1418       656       654       326       652
 -1       889    6    0    1
 -2       337       696       700       103      1346       743      1419       357       742       738
 -1       890    6    0    1
 -2       698       385       700       340      1330      1381       740      1328      1331      1420
 -1       891    6    0    1
 -2       187        34        31       146       189      1408      1421      1422      1263      1410
 -1       892    6    0    1
 -2       218        38       869       873       220       878      1211      1214       875       879
 -1       893    6    0    1
 -2       908       904       218        37       914      1215      1213       911       913       219
 -1       894    6    0    1
 -2       617       604       362       618       681      1405      1423       650       680      1424
 -1       895    6    0    1
 -2       337       383       700       373      1426      1425      1419      1393       450      1427
 -1       896    6    0    1
 -2       364       375       620       603       522      1336      1428      1339      1429       672
 -1       897    6    0    1
 -2      1122        31      1126      1095      1431      1430      1137      1432      1097      1334
 -1       898    6    0    1
 -2        23        31        34       570       300      1408      1433      1300      1354      1409
 -1       899    6    0    1
 -2      1034        28       180       240      1361       183      1344      1166      1362      1345
 -1       900    6    0    1
 -2       690       363       381       377      1435       512      1434      1436       515       469
 -1       901    6    0    1
 -2       367       164       165       155      1437       167      1385      1439      1438      1440
 -1       902    6    0    1
 -2       155       165       367       156      1440      1385      1439       158      1441      1442
 -1       903    6    0    1
 -2       690       381       368       545      1434       413      1275      1314      1443      1269
 -1       904    6    0    1
 -2        23       366       165       156      1445      1398      1444       159      1446      1441
 -1       905    6    0    1
 -2        26       366       165        23      1447      1398       168      1448      1445      1444
 -1       906    6    0    1
 -2       382       314       372       609      1449      1390       443      1450      1349      1392
 -1       907    6    0    1
 -2       382       372       314        89       443      1390      1449       442       436       336
 -1       908    6    0    1
 -2        96       383       337       373       445      1426       349       449       450      1393
 -1       909    6    0    1
 -2       395       392       366       156       487       532       531      1452      1451      1446
 -1       910    6    0    1
 -2        24       390       376       112      1375       465      1453      1376       460       464
 -1       911    6    0    1
 -2       700       394       707       692      1454      1415       761       773      1455       772
 -1       912    6    0    1
 -2       362       378       604       617       504      1312      1405      1423      1387       681
 -1       913    6    0    1
 -2       122       155       388        17      1402      1401       474       556       157      1456
 -1       914    6    0    1
 -2       370       365       691       380       523      1341      1221       435       524      1298
 -1       915    6    0    1
 -2       122       391       155        17       470      1400      1402       556      1457       157
 -1       916    6    0    1
 -2        23      1126        31      1095      1332      1430       300      1098      1334      1097
 -1       917    6    0    1
 -2       337       700       696       373      1419       743      1346      1393      1427      1395
 -1       918    6    0    1
 -2       953       188       187       981      1458       190      1367      1369      1459      1368
 -1       919    6    0    1
 -2       180       179      1041       954       182      1370      1343      1396      1373      1374
 -1       920    6    0    1
 -2       155       391       164        17      1400      1460      1438       157      1457      1461
 -1       921    6    0    1
 -2       241       973       188       981      1210      1462      1463      1313      1018      1459
 -1       922    6    0    1
 -2        26       389       566        25      1465      1464      1399       163      1466      1467
 -1       923    6    0    1
 -2       381       368       363       690       413       513       512      1434      1275      1435
 -1       924    6    0    1
 -2       365       704       691       380      1342       768      1341       524      1397      1298
 -1       925    6    0    1
 -2       392       367       165       156       541      1385      1386      1451      1442      1441
 -1       926    6    0    1
 -2        23       395       366       156      1468       531      1445       159      1452      1446
 -1       927    6    0    1
 -2      1126        26       165        23      1129       168      1130      1332      1448      1444
 -1       928    6    0    1
 -2        23       165      1126       156      1444      1130      1332       159      1441      1333
 -1       929    6    0    1
 -2       613       372       315       609      1469      1391      1418       656      1392      1348
 -1       930    6    0    1
 -2       980       146        35        34      1365      1411       988      1470      1263       192
 -1       931    6    0    1
 -2       136       690       381       377       747      1434      1471      1472      1436       469
 -1       932    6    0    1
 -2        23        34        26       570      1433       301      1448      1300      1409      1473
 -1       933    6    0    1
 -2       391        18       164        17      1474       166      1460      1457       141      1461
 -1       934    6    0    1
 -2       339       104       697       338       347       720      1475       355       359      1476
 -1       935    6    0    1
 -2       610       316       314        83      1322       332      1477       636       324       329
 -1       936    6    0    1
 -2      1122      1126       156      1095      1137      1333      1478      1432      1334      1099
 -1       937    6    0    1
 -2       365       705       704       374      1340       736      1342       525      1479      1480
 -1       938    6    0    1
 -2       179       188       240       180      1483      1481      1482       182      1484      1345
 -1       939    6    0    1
 -2       691       696       705       365       765       767       766      1341      1485      1340
 -1       940    6    0    1
 -2        23        26       390       565      1448      1486      1403      1379      1487      1378
 -1       941    6    0    1
 -2       973        32       184       241      1488       185      1235      1210      1289      1255
 -1       942    6    0    1
 -2       390        26       111       565      1486      1489       461      1378      1487       596
 -1       943    6    0    1
 -2       620       372       375       364      1335       480      1336      1428       438       522
 -1       944    6    0    1
 -2       241       146       179       147       966      1490      1491       965       149      1492
 -1       945    6    0    1
 -2       617       362       376       618      1423       507      1493       650      1424      1494
 -1       946    6    0    1
 -2       282      1123      1092       283      1145      1495      1496       288      1148      1497
 -1       947    6    0    1
 -2       241       179       146       187      1491      1490       966      1499      1498      1422
 -1       948    6    0    1
 -2       122        18       391        17       555      1474       470       556       141      1457
 -1       949    6    0    1
 -2       700       690       363       698       760      1435      1382       740       757      1383
 -1       950    6    0    1
 -2       360       372       375       605       481       480       482      1500      1338      1337
 -1       951    6    0    1
 -2       567        20      1039       147       579      1044      1272       587       150      1318
 -1       952    6    0    1
 -2       603       379       375       132      1501       479      1429       662      1502      1503
 -1       953    6    0    1
 -2       146        21        35       979       148       987      1411      1262       984       986
 -1       954    6    0    1
 -2       241       179       240       147      1491      1482       243       965      1492       968
 -1       955    6    0    1
 -2       570        34       566       146      1409      1412       600       599      1263       590
 -1       956    6    0    1
 -2       363       385       383       700       514       447       518      1382      1381      1425
 -1       957    6    0    1
 -2       616       392       395       156      1505       487      1504       647      1451      1452
 -1       958    6    0    1
 -2       147       146       179        31       149      1490      1492      1357      1410       181
 -1       959    6    0    1
 -2       399       165       398       366      1384      1506       503       534      1398       529
 -1       960    6    0    1
 -2       609       362       604       618      1414      1405       678       679      1424       680
 -1       961    6    0    1
 -2       147        31       570       146      1357      1354       598       149      1410       599
 -1       962    6    0    1
 -2       373       692       705       361      1508       775      1507       493      1509      1510
 -1       963    6    0    1
 -2       339       694        13       370      1511       718       345      1512      1216      1513
 -1       964    6    0    1
 -2       796       870       905       793      1301      1227      1304       852      1288      1316
 -1       965    6    0    1
 -2       361       692       705       703      1509       775      1510      1514       776       734
 -1       966    6    0    1
 -2       392       165       366       156      1386      1398       532      1451      1441      1446
 -1       967    6    0    1
 -2      1091        31      1094      1125      1105      1103      1104      1516      1515      1517
 -1       968    6    0    1
 -2       382       393       362       618       511       509       510      1519      1518      1424
 -1       969    6    0    1
 -2      1153       566        26        34      1353      1399      1155      1157      1412       301
 -1       970    6    0    1
 -2       179       240       188       241      1482      1481      1483      1491       243      1463
 -1       971    6    0    1
 -2        31       146       179       187      1410      1490       181      1421      1422      1498
 -1       972    6    0    1
 -2       690       363       707       700      1435      1416       758       760      1382       761
 -1       973    6    0    1
 -2       609       362       382       610      1414       510      1450       657      1323      1324
 -1       974    6    0    1
 -2       366       165       398        26      1398      1506       529      1447       168      1520
 -1       975    6    0    1
 -2       396       361       399       702       500       502       501      1522      1521      1523
 -1       976    6    0    1
 -2       908       796       791       873      1302       850      1294      1190      1303      1295
 -1       977    6    0    1
 -2        26       111       389       390      1489       457      1465      1486       461       462
 -1       978    6    0    1
 -2       241       188       953       981      1463      1458       967      1313      1459      1369
 -1       979    6    0    1
 -2        25       374       705       703      1524      1479       735       733      1525       734
 -1       980    6    0    1
 -2       794       792       869       904       857      1307      1297      1251      1308      1195
 -1       981    6    0    1
 -2       379       364       369       603       521       520       408      1501      1339      1231
 -1       982    6    0    1
 -2       692       383       394       373      1526       519      1455      1508       450       495
 -1       983    6    0    1
 -2       569       704       701       152      1404       751      1218       577       731       723
 -1       984    6    0    1
 -2       142       617       614       568       644       664       633       573      1388      1253
 -1       985    6    0    1
 -2       697       696       691       365       744       765       762      1527      1485      1341
 -1       986    6    0    1
 -2        24       376        19       112      1453      1528       161      1376       464       582
 -1       987    6    0    1
 -2       360       392       395       616       488       487       489      1529      1505      1504
 -1       988    6    0    1
 -2        25       374       389       110      1524       459      1466      1530       454       458
 -1       989    6    0    1
 -2       700       385       383       340      1381       447      1425      1420      1331      1531
 -1       990    6    0    1
 -2       361       705       374       703      1510      1479       494      1514       734      1525
 -1       991    6    0    1
 -2        26       566       111       565      1399       595      1489      1487       597       596
 -1       992    6    0    1
 -2       374       373       705       361       492      1507      1479       494       493      1510
 -1       993    6    0    1
 -2       156       155      1124      1093       158      1532      1533      1107      1108      1534
 -1       994    6    0    1
 -2       567       570        23       565       601      1300      1273       586       602      1379
 -1       995    6    0    1
 -2       692       700       383       373       773      1425      1526      1508      1427       450
 -1       996    6    0    1
 -2        25       398       374       703      1535       497      1524       733      1536      1525
 -1       997    6    0    1
 -2        25       566        26       979      1467      1399       163       991      1352      1317
 -1       998    6    0    1
 -2       194       188       973       981       786      1462      1016      1014      1459      1018
 -1       999    6    0    1
 -2       180      1041       174      1034      1343      1073       780      1344      1078      1077
 -1      1000    6    0    1
 -2      1122      1126        31        34      1137      1430      1431      1136      1128      1408
 -1      1001    6    0    1
 -2       545       690       381       136      1314      1434      1443       553       747      1471
 -1      1002    6    0    1
 -2       395       390       376        24       530       465       543      1537      1375      1453
 -1      1003    6    0    1
 -2       253       240       188       180      1278      1481      1538      1539      1345      1484
 -1      1004    6    0    1
 -2        25       704       374        22       729      1480      1524       162       730      1540
 -1      1005    6    0    1
 -2        20       147        30      1039       150      1541      1048      1044      1318      1047
 -1      1006    6    0    1
 -2       362       376       378       617       507       466       504      1423      1493      1387
 -1      1007    6    0    1
 -2       388       391       367       155       475       536       535      1401      1400      1439
 -1      1008    6    0    1
 -2       795       909        45       906      1236      1389       841      1238       929      1542
 -1      1009    6    0    1
 -2       874       795        46       871      1276       840      1224       894      1237      1543
 -1      1010    6    0    1
 -2       169       174      1035      1034       779      1054      1222      1200      1077      1076
 -1      1011    6    0    1
 -2       973       975       184       194      1017      1223      1235      1016       995       785
 -1      1012    6    0    1
 -2        31        30       147      1039       178      1541      1357      1356      1047      1318
 -1      1013    6    0    1
 -2       608       620       375       603       671      1336      1355       661       672      1429
 -1      1014    6    0    1
 -2       616       395       393        24      1504       491      1544       645      1537      1545
 -1      1015    6    0    1
 -2       360       397       392       615       486       490       488      1547      1546      1548
 -1      1016    6    0    1
 -2       609       382       362       618      1450       510      1414       679      1519      1424
 -1      1017    6    0    1
 -2       399       398       165       703       503      1506      1384      1549      1536       737
 -1      1018    6    0    1
 -2       377       706       396       391      1551      1550       544       472      1552       539
 -1      1019    6    0    1
 -2       389       566       111        26      1464       595       457      1465      1399      1489
 -1      1020    6    0    1
 -2       603       620       364       613       672      1428      1339       673       674      1553
 -1      1021    6    0    1
 -2      1037      1035       169      1038      1090      1222      1229      1085      1056      1554
 -1      1022    6    0    1
 -2       619       388       608       397      1556      1555       660      1557       537      1558
 -1      1023    6    0    1
 -2       146        35        21       980      1411       987       148      1365       988       989
 -1      1024    6    0    1
 -2      1093      1124      1122       269      1534      1142      1559      1118      1560      1561
 -1      1025    6    0    1
 -2       973       188        32       241      1462       191      1488      1210      1463      1289
 -1      1026    6    0    1
 -2       616       360       392       156      1529       488      1505       647      1562      1451
 -1      1027    6    0    1
 -2        24       395       390        23      1537       530      1375       160      1468      1403
 -1      1028    6    0    1
 -2       379       375       364       603       479       522       521      1501      1429      1339
 -1      1029    6    0    1
 -2      1122        34        31      1125      1136      1408      1431      1135      1134      1515
 -1      1030    6    0    1
 -2        26       389       366       390      1465       526      1447      1486       462       527
 -1      1031    6    0    1
 -2       380       365       704       374       524      1342      1397       456       525      1480
 -1      1032    6    0    1
 -2       706       396       164       702      1550      1563       728       754      1522       752
 -1      1033    6    0    1
 -2       188      1092       187      1123      1565      1564       190      1143      1495      1144
 -1      1034    6    0    1
 -2       397       608       619       615      1558       660      1557      1546       683       667
 -1      1035    6    0    1
 -2       155      1124       165       156      1532      1138      1440       158      1533      1441
 -1      1036    6    0    1
 -2      1124       165       164       155      1138       167      1139      1532      1440      1438
 -1      1037    6    0    1
 -2       603       375       608       132      1429      1355       661       662      1503       659
 -1      1038    6    0    1
 -2       364       620       372       613      1428      1335       438      1553       674      1469
 -1      1039    6    0    1
 -2       695       394       707       377      1566      1415       759      1567       516      1417
 -1      1040    6    0    1
 -2        23       616       395       156       646      1504      1468       159       647      1452
 -1      1041    6    0    1
 -2       370       694        13        73      1216       718      1513      1568       717        74
 -1      1042    6    0    1
 -2       397       619       155       615      1557       641      1569      1546       667       666
 -1      1043    6    0    1
 -2       241       240       188       253       243      1481      1463      1277      1278      1538
 -1      1044    6    0    1
 -2       373       705       365       374      1507      1340       451       492      1479       525
 -1      1045    6    0    1
 -2      1126        31        34        23      1430      1408      1128      1332       300      1433
 -1      1046    6    0    1
 -2      1123      1092       187       282      1495      1564      1144      1145      1496      1146
 -1      1047    6    0    1
 -2       692       696       700       373       774       743       773      1508      1395      1427
 -1      1048    6    0    1
 -2       979        25       566        22       991      1467      1352       985       162       588
 -1      1049    6    0    1
 -2        22       374        25       110      1540      1524       162       591       454      1530
 -1      1050    6    0    1
 -2       362       393       376       618       509       508       507      1424      1518      1494
 -1      1051    6    0    1
 -2       954       179       240       180      1373      1482       969      1396       182      1345
 -1      1052    6    0    1
 -2       316       371        12       607      1320       423       322      1321      1247      1570
 -1      1053    6    0    1
 -2       156       360       392       615      1562       488      1451       665      1547      1548
 -1      1054    6    0    1
 -2       700       383       394       692      1425       519      1454       773      1526      1455
 -1      1055    6    0    1
 -2       692       394       707       695      1455      1415       772       771      1566       759
 -1      1056    6    0    1
 -2       340       368         8       693      1327       414       341      1329      1266      1571
 -1      1057    6    0    1
 -2       393       395       376        24       491       543       508      1545      1537      1453
 -1      1058    6    0    1
 -2       568       617       378       113      1388      1387      1306       574      1572       420
 -1      1059    6    0    1
 -2       241       953       187       146       967      1367      1499       966       958      1422
 -1      1060    6    0    1
 -2       616       393       618        24      1544      1518       649       645      1545       648
 -1      1061    6    0    1
 -2       367       391       164       155       536      1460      1437      1439      1400      1438
 -1      1062    6    0    1
 -2       399       361       398       703       502       498       503      1549      1514      1536
 -1      1063    6    0    1
 -2        97       339       365       338       348      1573       452       352       355      1574
 -1      1064    6    0    1
 -2       706       695       396       702       750      1575      1550       754       770      1522
 -1      1065    6    0    1
 -2        34       566        26       570      1412      1399       301      1409       600      1473
 -1      1066    6    0    1
 -2       706       396       695       377      1550      1575       750      1551       544      1567
 -1      1067    6    0    1
 -2       365       696       705       373      1485       767      1340       451      1395      1507
 -1      1068    6    0    1
 -2        43       203       907       202       836       920      1576       835       212       921
 -1      1069    6    0    1
 -2       369         3        53       606       401        54       400      1234      1577      1578
 -1      1070    6    0    1
 -2       361       374       398       703       494       497       498      1514      1525      1536
 -1      1071    6    0    1
 -2       695       690       136       377       748       747       745      1567      1436      1472
 -1      1072    6    0    1
 -2       609       613       372       605       656      1469      1392       686       687      1338
 -1      1073    6    0    1
 -2        22       704       374       109       730      1480      1540       592      1579       455
 -1      1074    6    0    1
 -2       390       366        26        23       527      1447      1486      1403      1445      1448
 -1      1075    6    0    1
 -2       570        26        23       565      1473      1448      1300       602      1487      1379
 -1      1076    6    0    1
 -2       954       240       179       147       969      1482      1373       956       968      1492
 -1      1077    6    0    1
 -2       605       393       618       616      1580      1518       688       689      1544       649
 -1      1078    6    0    1
 -2        26       165       398       703       168      1506      1520       732       737      1536
 -1      1079    6    0    1
 -2       361       394       692       702       496      1455      1509      1521      1581       769
 -1      1080    6    0    1
 -2       611       603       364       613       669      1339      1406       653       673      1553
 -1      1081    6    0    1
 -2       124       375       379       132       476       479       406       564      1503      1502
 -1      1082    6    0    1
 -2      1040        30       147        31      1049      1541      1407      1582       178      1357
 -1      1083    6    0    1
 -2        20        30       147      1040      1048      1541       150      1050      1049      1407
 -1      1084    6    0    1
 -2       104       696       697       338       741       744       720       359      1347      1476
 -1      1085    6    0    1
 -2       610       314       609        83      1477      1349       657       636       329       655
 -1      1086    6    0    1
 -2       909       203        44       204       924       839      1583       923       213       838
 -1      1087    6    0    1
 -2       706       164       396       391       728      1563      1550      1552      1460       539
 -1      1088    6    0    1
 -2       156      1124      1122      1093      1533      1142      1478      1107      1534      1559
 -1      1089    6    0    1
 -2       179      1041      1040       173      1370      1075      1371       782      1074      1059
 -1      1090    6    0    1
 -2       187       193       980       981       789       992      1366      1368      1013      1015
 -1      1091    6    0    1
 -2        24       616       395        23       645      1504      1537       160       646      1468
 -1      1092    6    0    1
 -2       605       360       393       616      1500       484      1580       689      1529      1544
 -1      1093    6    0    1
 -2       270      1091      1094      1125      1119      1104      1121      1584      1516      1517
 -1      1094    6    0    1
 -2       187        31      1125      1094      1421      1515      1133      1585      1103      1517
 -1      1095    6    0    1
 -2        25        26       398       703       163      1520      1535       733       732      1536
 -1      1096    6    0    1
 -2        26       398       389        25      1520       528      1465       163      1535      1466
 -1      1097    6    0    1
 -2       338       696       365       373      1347      1485      1574      1394      1395       451
 -1      1098    6    0    1
 -2       396       394       361       702       499       496       500      1522      1581      1521
 -1      1099    6    0    1
 -2       187       241       179       188      1499      1491      1498       190      1463      1483
 -1      1100    6    0    1
 -2       695       394       396       702      1566       499      1575       770      1581      1522
 -1      1101    6    0    1
 -2       907       905       903      1163       922       936       935      1182      1202      1169
 -1      1102    6    0    1
 -2       569       380       704       109      1282      1397      1404       578       433      1579
 -1      1103    6    0    1
 -2      1126        34        26        23      1128       301      1129      1332      1433      1448
 -1      1104    6    0    1
 -2       608       388       375       397      1555       478      1355      1558       537       485
 -1      1105    6    0    1
 -2       315       364       372       613      1586       438      1391      1418      1553      1469
 -1      1106    6    0    1
 -2       608       375       388       619      1355       478      1555       660      1587      1556
 -1      1107    6    0    1
 -2       218       791        38       873       811       813       220      1214      1295       875
 -1      1108    6    0    1
 -2       908       218       791        37      1213       811      1294       911       219       807
 -1      1109    6    0    1
 -2      1093       155      1124       268      1108      1532      1534      1109      1096      1588
 -1      1110    6    0    1
 -2       271      1092       272       283      1114      1117       277       952      1497       945
 -1      1111    6    0    1
 -2       613       317       611        81      1589      1259       653       651       320       624
 -1      1112    6    0    1
 -2       698       700       102       340       740       739       714      1328      1420       343
 -1      1113    6    0    1
 -2       395       366       390        23       531       527       530      1468      1445      1403
 -1      1114    6    0    1
 -2       617       376        19        24      1493      1528       642       643      1453       161
 -1      1115    6    0    1
 -2      1093      1122      1091       269      1559      1590      1110      1118      1561      1120
 -1      1116    6    0    1
 -2       136       381       120       377      1471       411       562      1472       469       468
 -1      1117    6    0    1
 -2       618       393       376        24      1518       508      1494       648      1545      1453
 -1      1118    6    0    1
 -2        33       257       909       204       258      1591      1592       804       806       923
 -1      1119    6    0    1
 -2      1095      1122        31      1091      1432      1431      1097      1106      1590      1105
 -1      1120    6    0    1
 -2        46       226       261       874       846       818       263      1224       889      1207
 -1      1121    6    0    1
 -2       373       394       692       361       495      1455      1508       493       496      1509
 -1      1122    6    0    1
 -2       619       155       388       397       641      1401      1556      1557      1569       537
 -1      1123    6    0    1
 -2        45       909       257       204      1389      1591       259       842       923       806
 -1      1124    6    0    1
 -2      1122       156      1126       165      1478      1333      1137      1141      1441      1130
 -1      1125    6    0    1
 -2       618       376       617        24      1494      1493       650       648      1453       643
 -1      1126    6    0    1
 -2       570       566        26       565       600      1399      1473       602       597      1487
 -1      1127    6    0    1
 -2       132       375       608       131      1503      1355       659       134      1593       658
 -1      1128    6    0    1
 -2       337       700       383       340      1419      1425      1426       351      1420      1531
 -1      1129    6    0    1
 -2       393       372       360       605       483       481       484      1580      1338      1500
 -1      1130    6    0    1
 -2      1124      1122       165       156      1142      1141      1138      1533      1478      1441
 -1      1131    6    0    1
 -2       374       389       398        25       459       528       497      1524      1466      1535
 -1      1132    6    0    1
 -2       607       371        12        69      1247       423      1570      1594       418        71
 -1      1133    6    0    1
 -2       874        46       226       227      1224       846       889       891       845       236
 -1      1134    6    0    1
 -2       619       375       123       131      1587       477      1595       640      1593       558
 -1      1135    6    0    1
 -2        45       205       909       204       843       926      1389       842       214       923
 -1      1136    6    0    1
 -2       269      1124      1122       280      1560      1142      1561       947      1149      1150
 -1      1137    6    0    1
 -2       253       180        28       240      1539       183      1241      1278      1345      1362
 -1      1138    6    0    1
 -2       545       699       690       136      1267       749      1314       553       711       747
 -1      1139    6    0    1
 -2         8       368        61       693       414       409        63      1571      1266      1596
 -1      1140    6    0    1
 -2      1091      1122        31      1125      1590      1431      1105      1516      1135      1515
 -1      1141    6    0    1
 -2       568       142       617       113       573       644      1388       574       585      1572
 -1      1142    6    0    1
 -2       109       704       569       152      1579      1404       578       593       731       577
 -1      1143    6    0    1
 -2       123       388       375       619       473       478       477      1595      1556      1587
 -1      1144    6    0    1
 -2       132       124       375       131       564       476      1503       134       563      1593
 -1      1145    6    0    1
 -2        41       223       870       224       830       882      1287       829       233       884
 -1      1146    6    0    1
 -2       905       201        42       202       916       832      1315       919       211       833
 -1      1147    6    0    1
 -2      1124       279       155       164      1140      1597      1532      1139      1127      1438
 -1      1148    6    0    1
 -2       619       388       155        17      1556      1401       641       639      1456       157
 -1      1149    6    0    1
 -2       155       164       279        17      1438      1127      1597       157      1461       941
 -1      1150    6    0    1
 -2       979        21       566       146       984       589      1352      1262       148       590
 -1      1151    6    0    1
 -2        38       869       792       218       878      1307       814       220      1211       812
 -1      1152    6    0    1
 -2       218       904       792        37      1215      1308       812       219       913       809
 -1      1153    6    0    1
 -2       124       379       546       132       406      1598       550       564      1502       549
 -1      1154    6    0    1
 -2       695       396       394       377      1575       499      1566      1567       544       516
 -1      1155    6    0    1
 -2      1125      1094       270       282      1517      1121      1584      1147      1599       950
 -1      1156    6    0    1
 -2        27      1038      1042      1032      1601      1058      1600      1310      1086      1067
 -1      1157    6    0    1
 -2       982       978        33       974       999      1602      1603      1004      1028      1604
 -1      1158    6    0    1
 -2       692       705       696       373       775       767       774      1508      1507      1395
 -1      1159    6    0    1
 -2       613       315       317        81      1418       328      1589       651       327       320
 -1      1160    6    0    1
 -2       337       102       700       340       356       739      1419       351       343      1420
 -1      1161    6    0    1
 -2       290       240        40      1043       964       242       963      1068      1164      1245
 -1      1162    6    0    1
 -2       703       361       692       702      1514      1509       776       755      1521       769
 -1      1163    6    0    1
 -2       224        40       797       872       822       824       825       885      1605      1606
 -1      1164    6    0    1
 -2       156       616       360       615       647      1529      1562       665       668      1547
 -1      1165    6    0    1
 -2       391       377       706       121       472      1551      1552       471       467      1607
 -1      1166    6    0    1
 -2       187      1125        31        34      1133      1515      1421       189      1134      1408
 -1      1167    6    0    1
 -2      1095       156      1122      1091      1099      1478      1432      1106      1111      1590
 -1      1168    6    0    1
 -2       617        19       376       113       642      1528      1493      1572       581       463
 -1      1169    6    0    1
 -2       391       164       396       367      1460      1563       539       536      1437       540
 -1      1170    6    0    1
 -2       279       164        18        17      1127       166       284       941      1461       141
 -1      1171    6    0    1
 -2       619       608       375       131       660      1355      1587       640       658      1593
 -1      1172    6    0    1
 -2       338       365        97       373      1574       452       352      1394       451       448
 -1      1173    6    0    1
 -2       695       692       394       702       771      1455      1566       770       769      1581
 -1      1174    6    0    1
 -2       364       372        88       315       438       437       439      1586      1391       334
 -1      1175    6    0    1
 -2       269      1122      1091       281      1561      1590      1120       948      1151      1608
 -1      1176    6    0    1
 -2      1091       156      1122      1093      1111      1478      1590      1110      1107      1559
 -1      1177    6    0    1
 -2       366       398       389        26       529       528       526      1447      1520      1465
 -1      1178    6    0    1
 -2       706        18       164       391       727       166       728      1552      1474      1460
 -1      1179    6    0    1
 -2       393       360       395       616       484       489       491      1544      1529      1504
 -1      1180    6    0    1
 -2       695       136       137       377       745       139       746      1567      1472      1609
 -1      1181    6    0    1
 -2       607        12       316        10      1570       322      1321       635        72       323
 -1      1182    6    0    1
 -2       617       376       378       113      1493       466      1387      1572       463       420
 -1      1183    6    0    1
 -2       389       111       566       110       457       595      1464       458       116       594
 -1      1184    6    0    1
 -2       374       704       380       109      1480      1397       456       455      1579       433
 -1      1185    6    0    1
 -2       391       706        18       121      1552       727      1474       471      1607       559
 -1      1186    6    0    1
 -2       953       187       188       241      1367       190      1458       967      1499      1463
 -1      1187    6    0    1
 -2       268       269      1124      1093       274      1560      1588      1109      1118      1534
 -1      1188    6    0    1
 -2       280      1122       269       281      1150      1561       947       286      1151       948
 -1      1189    6    0    1
 -2       269      1091       270       281      1120      1119       275       948      1608       949
 -1      1190    6    0    1
 -2       616       605       360       615       689      1500      1529       668       684      1547
 -1      1191    6    0    1
 -2       110        22       374       109       591      1540       454       115       592       455
 -1      1192    6    0    1
 -2       124       123       375       131       129       477       476       563       558      1593
 -1      1193    6    0    1
 -2       339        13        15       370       345        76       346      1512      1513       428
 -1      1194    6    0    1
 -2       142        19       617       113       143       642       644       585       581      1572
 -1      1195    6    0    1
 -2       109        22       704       152       592       730      1579       593       154       731
 -1      1196    6    0    1
 -2       693         8       340         6      1571       341      1329       713        64       342
 -1      1197    6    0    1
 -2       606       317         3         1      1257       318      1577       622       319        52
 -1      1198    6    0    1
 -2       222       796       870       873       859      1301       881       880      1303       883
 -1      1199    6    0    1
 -2       796       200       905       908       849       917      1304      1302       915       918
 -1      1200    6    0    1
 -2       545       381       120       136      1443       411       554       553      1471       562
 -1      1201    6    0    1
 -2       613       620       372       605       674      1335      1469       687       685      1338
 -1      1202    6    0    1
 -2       155       367       388       397      1439       535      1401      1569       538       537
 -1      1203    6    0    1
 -2      1124       155       279       268      1532      1597      1140      1588      1096       942
 -1      1204    6    0    1
 -2       268       155       279        17      1096      1597       942       273       157       941
 -1      1205    6    0    1
 -2       374       705       704        25      1479       736      1480      1524       735       729
 -1      1206    6    0    1
 -2       980        34        35       187      1470       192       988      1366       189       788
 -1      1207    6    0    1
 -2      1040        30        31       179      1049       178      1582      1371       781       181
 -1      1208    6    0    1
 -2       188       193       187       981       790       789       190      1459      1013      1368
 -1      1209    6    0    1
 -2       173       179      1041       180       782      1370      1074       783       182      1343
 -1      1210    6    0    1
 -2       199       796       791       908       848       850       808       910      1302      1294
 -1      1211    6    0    1
 -2       221       791       796       873       815       850       858       876      1295      1303
 -1      1212    6    0    1
 -2      1125       187      1094       282      1133      1585      1517      1147      1146      1599
 -1      1213    6    0    1
 -2      1032      1042        27       249      1067      1600      1310      1359      1610       251
 -1      1214    6    0    1
 -2       982        33       257       974      1603       258      1611      1004      1604      1612
 -1      1215    6    0    1
 -2       619       123       388        17      1595       473      1556       639       557      1456
 -1      1216    6    0    1
 -2       173      1041       174       180      1074      1073       176       783      1343       780
 -1      1217    6    0    1
 -2       194       193       188       981       196       790       786      1014      1013      1459
 -1      1218    6    0    1
 -2       122       388       123        17       474       473       128       556      1456       557
 -1      1219    6    0    1
 -2       794       207       792       904       854       810       857      1251       912      1308
 -1      1220    6    0    1
 -2       229       792       869       794       816      1307       877       866       857      1297
 -1      1221    6    0    1
 -2       907        32        44       253      1614       256      1613      1240      1291       255
 -1      1222    6    0    1
 -2       282      1092       271       283      1496      1114       951       288      1497       952
 -1      1223    6    0    1
 -2       121        18       391       122       559      1474       471       127       555       470
 -1      1224    6    0    1
 -2       137       136       120       377       139       562       561      1609      1472       468
 -1      1225    6    0    1
 -2       228       869       871       794       895       896       893       867      1297      1249
 -1      1226    6    0    1
 -2       904       906       794       206       931      1250      1251       930       927       855
 -1      1227    6    0    1
 -2       377       137       706       121      1609       726      1551       467       560      1607
 -1      1228    6    0    1
 -2       906       205       795       206       928       844      1238       927       215       853
 -1      1229    6    0    1
 -2       871       795       227       228      1237       847       892       893       865       237
 -1      1230    6    0    1
 -2       905       201       200       793       916       210       917      1316       834       851
 -1      1231    6    0    1
 -2       793       870       223       222      1288       882       831       860       881       232
 -1      1232    6    0    1
 -2       795        45       205       906       841       843       844      1238      1542       928
 -1      1233    6    0    1
 -2       227        46       795       871       845       840       847       892      1543      1237
 -1      1234    6    0    1
 -2       909        32        44       907      1283       256      1583       925      1614      1613
 -1      1235    6    0    1
 -2       281      1122      1091      1125      1151      1590      1608      1152      1135      1516
 -1      1236    6    0    1
 -2       607        65        12        10       630       310      1570       635        67        72
 -1      1237    6    0    1
 -2      1032        42       249      1163      1066       250      1359      1293      1292      1360
 -1      1238    6    0    1
 -2       706       695       137       377       750       746       726      1551      1567      1609
 -1      1239    6    0    1
 -2       384        88         3       317       402        91       403      1256       321       318
 -1      1240    6    0    1
 -2       113        19       376       112       581      1528       463       118       582       464
 -1      1241    6    0    1
 -2       241       188        32       253      1463       191      1289      1277      1538      1291
 -1      1242    6    0    1
 -2       240       224       797       872       862       825       826      1172       885      1606
 -1      1243    6    0    1
 -2       169       907        28      1163      1615      1239       171      1204      1182      1242
 -1      1244    6    0    1
 -2       179      1094        31       187      1102      1103       181      1498      1585      1421
 -1      1245    6    0    1
 -2       370        15        73        13       428       311      1568      1513        76        74
 -1      1246    6    0    1
 -2        69        65        12       607       309       310        71      1594       630      1570
 -1      1247    6    0    1
 -2       281      1091       270      1125      1608      1119       949      1152      1516      1584
 -1      1248    6    0    1
 -2      1092       188       179       180      1565      1483      1113      1112      1484       182
 -1      1249    6    0    1
 -2       339       387        15        97      1616       430       346       348       429       101
 -1      1250    6    0    1
 -2       693         6        61         8       713       306      1596      1571        64        63
 -1      1251    6    0    1
 -2       606        53         1         3      1578       302       622      1577        54        52
 -1      1252    6    0    1
 -2        77        15        73       370        78       311       313       427       428      1568
 -1      1253    6    0    1
 -2        89        88       372       315        92       437       436       333       334      1391
 -1      1254    6    0    1
 -2       268       279      1124       280       942      1140      1588       946       285      1149
 -1      1255    6    0    1
 -2       338        97        96       373       352       100       353      1394       448       449
 -1      1256    6    0    1
 -2       268      1124       269       280      1588      1560       274       946      1149       947
 -1      1257    6    0    1
 -2        57         6        61       693        59       306       307       708       713      1596
 -1      1258    6    0    1
 -2        49        53         1       606       303       302        50       621      1578       622
 -1      1259    6    0    1
 -2       179      1040        30       173      1371      1049       781       782      1059       175
 -1      1260    6    0    1
 -2       193       980        35       187       992       988       195       789      1366       788
 -1      1261    6    0    1
 -2       377       120       137       121       468       561      1609       467       126       560
 -1      1262    6    0    1
 -2       188       187      1092       179       190      1564      1565      1483      1498      1113
 -1      1263    6    0    1
 -2       271       179      1092       187      1115      1113      1114      1617      1498      1564
 -1      1264    6    0    1
 -2       979       566        21        22      1352       589       984       985       588       151
 -1      1265    6    0    1
 -2       112       390       111       565       460       461       117       583      1378       596
 -1      1266    6    0    1
 -2       293       241       983        39       962      1209      1009       961       244      1350
 -1      1267    6    0    1
 -2        45       909       205       906      1389       926       843      1542       929       928
 -1      1268    6    0    1
 -2       227       874        46       871       891      1224       845       892       894      1543
 -1      1269    6    0    1
 -2      1125       270       281       282      1584       949      1152      1147       950       287
 -1      1270    6    0    1
 -2       271       270      1094       282       276      1121      1116       951       950      1599
 -1      1271    6    0    1
 -2       906       795       794       206      1238       856      1250       927       853       855
 -1      1272    6    0    1
 -2       228       871       795       794       893      1237       865       867      1249       856
 -1      1273    6    0    1
 -2       187      1092       271       282      1564      1114      1617      1146      1496       951
 -1      1274    6    0    1
 -2       907        44       203       253      1613       839       920      1240       255       837
 -1      1275    6    0    1
 -2       796       905       200       793      1304       917       849       852      1316       851
 -1      1276    6    0    1
 -2       793       796       870       222       852      1301      1288       860       859       881
 -1      1277    6    0    1
 -2       909        44       203       907      1583       839       924       925      1613       920
 -1      1278    6    0    1
 -2       222       221       796       873       231       858       859       880       876      1303
 -1      1279    6    0    1
 -2       199       200       796       908       209       849       848       910       915      1302
 -1      1280    6    0    1
 -2       229       869       228       794       877       895       238       866      1297       867
 -1      1281    6    0    1
 -2       904       794       207       206      1251       854       912       930       855       216
 -1      1282    6    0    1
 -2       365       387       339        97       453      1616      1573       452       429       348
 -1      1283    6    0    1
 -2       706       137        18       121       726       140       727      1607       560       559
 -1      1284    6    0    1
 -2        39       261       226       874       262       818       817      1196      1207       889
 -1      1285    6    0    1
 -2       271      1094       179       187      1116      1102      1115      1617      1585      1498
 -1      1286    6    0    1
 -2        81       317       611         1       320      1259       624        84       319       623
 -1      1287    6    0    1
 -2       340       102       698         6       343       714      1328       342       105       715
 -1      1288    6    0    1
 -2       187       271      1094       282      1617      1116      1585      1146       951      1599
 -1      1289    6    0    1
 -2         5       699       545       136       710      1267       552       138       711       553
 -1      1290    6    0    1
 -2         2       546       612       132       548      1618       628       135       549       627
 -1      1291    6    0    1
 -2       131       123       619        17       558      1595       640       133       557       639
 -1      1292    6    0    1
 -2       226       241       798       874       863       821       820       889      1225      1619
 -1      1293    6    0    1
 -2        95       385         8       340       415       416        98       344      1331       341
 -1      1294    6    0    1
 -2       221        38       791       873       230       813       815       876       875      1295
 -1      1295    6    0    1
 -2       908       791       199        37      1294       808       910       911       807       208
 -1      1296    6    0    1
 -2        16       380       569       109       434      1282       575       114       433       578
 -1      1297    6    0    1
 -2       283      1092       188      1123      1497      1565      1132      1148      1495      1143
 -1      1298    6    0    1
 -2        12        90       386       316        94       424       425       322       325      1351
 -1      1299    6    0    1
 -2       113       378       568        11       420      1306       574       119       421       571
 -1      1300    6    0    1
 -2       610        10       316        83       637       323      1322       636        87       324
 -1      1301    6    0    1
 -2        13       104       697       339       108       720       719       345       347      1475
 -1      1302    6    0    1
 -2       379       546         4       124      1598       547       407       406       550       130
 -1      1303    6    0    1
 -2        33       909       184       204      1592      1284       186       804       923       805
 -1      1304    6    0    1
 -2        38       792       869       229       814      1307       878       239       816       877
 -1      1305    6    0    1
 -2       904       207       792        37       912       810      1308       913       217       809
 -1      1306    6    0    1
 -2       381       120         7       545       411       125       412      1443       554       551
 -1      1307    6    0    1
 -2       874       225       241       872       888       864      1225       890       886      1280
 -1      1308    6    0    1
 -2        24      1158      1039        30      1160      1270      1046       299      1162      1047
 -1      1309    6    0    1
 -2      1153        25       979        35      1154       991      1260      1156       298       986
 -1      1310    6    0    1
 -2       339        15       387       370       346       430      1616      1512       428       431
 -1      1311    6    0    1
 -2       905        42       201       793      1315       832       916      1316       827       834
 -1      1312    6    0    1
 -2       793       223       870        41       831       882      1288       828       830      1287
 -1      1313    6    0    1
 -2        32        44       184       909       256       803       185      1283      1583      1284
 -1      1314    6    0    1
 -2        81       613       315        82       651      1418       327        85       652       326
 -1      1315    6    0    1
 -2       337       700       102       103      1419       739       356       357       738       106
 -1      1316    6    0    1
 -2       606       546       612         2      1620      1618       629       626       548       628
 -1      1317    6    0    1
 -2       545       693       699         5      1268       712      1267       552       709       710
 -1      1318    6    0    1
 -2       272       253        28        43       943      1241      1100       278       254       252
 -1      1319    6    0    1
 -2       909        44       184       204      1583       803      1284       923       838       805
 -1      1320    6    0    1
 -2       104       103       696       338       107       742       741       359       358      1347
 -1      1321    6    0    1
 -2        82       609       314        83       654      1349       330        86       655       329
 -1      1322    6    0    1
 -2       253       180       283       272      1539      1621       944       943      1101       945
 -1      1323    6    0    1
 -2        14       569       701       152       576      1218       724       153       577       723
 -1      1324    6    0    1
 -2         9       142       614       568       144       633       632       572       573      1253
 -1      1325    6    0    1
 -2        39       226       798       874       817       820       819      1196       889      1619
 -1      1326    6    0    1
 -2       169        43       907       202       802      1576      1615       799       835       921
 -1      1327    6    0    1
 -2        28        43       907       169       252      1576      1239       171       802      1615
 -1      1328    6    0    1
 -2      1039        19        20       567      1045       145      1044      1272       580       579
 -1      1329    6    0    1
 -2        28       907        43       253      1239      1576       252      1241      1240       254
 -1      1330    6    0    1
 -2       337        95       383        96       350       446      1426       349        99       445
 -1      1331    6    0    1
 -2       382       314        90        89      1449       335       441       442       336        93
 -1      1332    6    0    1
 -2       293       953       980       981       960      1364       990      1019      1369      1015
 -1      1333    6    0    1
 -2       290      1041      1040       954      1079      1075      1051       957      1374      1372
 -1      1334    6    0    1
 -2       283      1092       272       180      1497      1117       945      1621      1112      1101
 -1      1335    6    0    1
 -2         9       614       607       568       632       634       631       572      1253      1254
 -1      1336    6    0    1
 -2       569       701       694        14      1218       725      1220       576       724       722
 -1      1337    6    0    1
 -2       253       283       180       188       944      1621      1539      1538      1132      1484
 -1      1338    6    0    1
 -2       272        28       253       180      1100      1241       943      1101       183      1539
 -1      1339    6    0    1
 -2       694        13       697       339       718       719       721      1511       345      1475
 -1      1340    6    0    1
 -2        10       316       607       610       323      1321       635       637      1322       638
 -1      1341    6    0    1
 -2         8       385       368       340       416       417       414       341      1331      1327
 -1      1342    6    0    1
 -2       180      1092       188       283      1112      1565      1484      1621      1497      1132
 -1      1343    6    0    1
 -2       568       378       371        11      1306       422      1252       571       421       419
 -1      1344    6    0    1
 -2       283        32       253        44      1131      1291       944       289       256       255
 -1      1345    6    0    1
 -2       693       340       698         6      1329      1328       716       713       342       715
 -1      1346    6    0    1
 -2       611       317       606         1      1259      1257       625       623       319       622
 -1      1347    6    0    1
 -2        12       386       371       316       425       426       423       322      1351      1320
 -1      1348    6    0    1
 -2       381         7       368       545       412       410       413      1443       551      1269
 -1      1349    6    0    1
 -2        43       907       203       253      1576       920       836       254      1240       837
 -1      1350    6    0    1
 -2        48        39       293       983       296       961       295      1008      1350      1009
 -1      1351    6    0    1
 -2        47       290        40      1043       292       963       266      1069      1068      1245
 -1      1352    6    0    1
 -2       283       253        32       188       944      1291      1131      1132      1538       191
 -1      1353    6    0    1
 -2       569       370       380        16      1219       435      1282       575       432       434
 -1      1354    6    0    1
 -2         4       369       546       379       405      1622       547       407       408      1598
 -1      1355    6    0    1
 -2       290      1040        20       954      1051      1050       291       957      1372       955
 -1      1356    6    0    1
 -2        48       976       972        39      1011      1010      1006       296      1185      1188
 -1      1357    6    0    1
 -2        40      1036      1033        47      1244      1070      1623       266      1071      1062
 -1      1358    6    0    1
 -2        48       983       976        39      1008      1012      1011       296      1350      1185
 -1      1359    6    0    1
 -2        40      1043      1036        47      1245      1072      1244       266      1069      1071
 -1      1360    6    0    1
 -2       953       980        21       293      1364       989       959       960       990       294
 -1      1361    6    0    1
 -2       982       257        45       974      1611       259       994      1004      1612      1002
 -1      1362    6    0    1
 -2      1032        42      1042       249      1066      1052      1067      1359       250      1610
 -1      1363    6    0    1
 -2      1042        29      1038        27      1053      1057      1058      1600       172      1601
 -1      1364    6    0    1
 -2        36       978        33       982       998      1602       198       993       999      1603
 -1      1365    6    0    1
 -2        48       972       261        39      1006      1193       970       296      1188       262
 -1      1366    6    0    1
 -2        40      1033       245        47      1623      1624       247       266      1062       939
 -1      1367    6    0    1
 -2        41       245      1033        47       246      1624      1063       265       939      1062
 -1      1368    6    0    1
 -2        46       972       261        48      1005      1193       263       297      1006       970
 -1      1369    6    0    1
 -2        27      1042        29       249      1600      1053       172       251      1610       938
 -1      1370    6    0    1
 -2        36        33       257       982       198       258       940       993      1603      1611
 -1      1371    6    0    1
 -2        36       257        45       982       940       259       267       993      1611       994
 -1      1372    6    0    1
 -2      1042        42        29       249      1052       264      1053      1610       250       938
 -1      1373    6    0    1
 -2       977       184       971       976      1228      1187      1023      1024      1184      1021
 -1      1374    6    0    1
 -2       974       978        33       977      1028      1602      1604      1022      1029      1625
 -1      1375    6    0    1
 -2      1031      1036       169      1037      1083      1201      1203      1082      1084      1229
 -1      1376    6    0    1
 -2       874        39       241       798      1196       244      1225      1619       819       821
 -1      1377    6    0    1
 -2       971       874        45        46      1198      1358      1000      1001      1224       260
 -1      1378    6    0    1
 -2       971       977        33       184      1023      1625      1626      1187      1228       186
 -1      1379    6    0    1
 -2        33       977       971       974      1625      1023      1626      1604      1022      1003
 -1      1380    6    0    1
 -2      1038      1032       169      1037      1086      1309      1554      1085      1081      1229
 -1      1381    6    0    1
 -2       169      1032      1038        27      1309      1086      1554       170      1310      1601
 -1      1382    6    0    1
 -2       169      1032      1031      1037      1309      1065      1203      1229      1081      1082
 -1      1383    6    0    1
 -2      1031      1032       169      1163      1065      1309      1203      1205      1293      1204
 -1      1384    6    0    1
 -2        45       257       971       974       259      1627      1000      1002      1612      1003
 -1      1385    6    0    1
 -2       971       257        33       974      1627       258      1626      1003      1612      1604
 -1      1386    6    0    1
 -2        32      1163       253       907      1628      1243      1291      1614      1182      1240
 -1      1387    6    0    1
 -2       253      1163        32       872      1243      1628      1291      1279      1181      1290
 -1      1388    6    0    1
 -2        32       909      1163       907      1283      1177      1628      1614       925      1182
 -1      1389    6    0    1
 -2        32       874      1163       909      1285      1180      1628      1283      1189      1177
 -1      1390    6    0    1
 -2       874        32      1163       872      1285      1628      1180       890      1290      1181
 -1      1391    6    0    1
 -2       379       546       606       369      1598      1620      1629       408      1622      1234
 -1      1392    6    0    1
 -2       546       379       606       612      1598      1629      1620      1618      1630       629
 -1      1393    6    0    1
 -2       379       606       603       369      1629       670      1501       408      1234      1231
 -1      1394    6    0    1
 -2       606       379       603       612      1629      1501       670       629      1630       663
 -1      1395    6    0    1
 -2         3       384       606       369       403      1233      1577       401       404      1234
 -1      1396    6    0    1
 -2       384         3       606       317       403      1577      1233      1256       318      1257
 -1      1397    6    0    1
 -2       339       370       697       694      1512      1631      1475      1511      1216       721
 -1      1398    6    0    1
 -2       370       691       697       694      1221       762      1631      1216       763       721
 -1      1399    6    0    1
 -2       240      1163      1036       169      1413      1206      1165      1199      1204      1201
 -1      1400    6    0    1
 -2      1036      1163       240        40      1206      1413      1165      1244      1632       242
 -1      1401    6    0    1
 -2      1038       169        29      1035      1554       777      1057      1056      1222      1055
 -1      1402    6    0    1
 -2        29       169      1038        27       777      1554      1057       172       170      1601
 -1      1403    6    0    1
 -2       253       240      1163       872      1278      1413      1243      1279      1172      1181
 -1      1404    6    0    1
 -2       240       253      1163        28      1278      1243      1413      1362      1241      1242
 -1      1405    6    0    1
 -2       371       610       362       604      1296      1323       505      1246       676      1405
 -1      1406    6    0    1
 -2       362       610       371       386      1323      1296       505       506      1325       426
 -1      1407    6    0    1
 -2       187       146       980        34      1422      1365      1366       189      1263      1470
 -1      1408    6    0    1
 -2       980       146       187       953      1365      1422      1366      1364       958      1367
 -1      1409    6    0    1
 -2      1036      1031        40      1033      1083      1633      1244      1070      1064      1623
 -1      1410    6    0    1
 -2        40      1031      1036      1163      1633      1083      1244      1632      1205      1206
 -1      1411    6    0    1
 -2      1031        41       245      1033      1061       246      1634      1064      1063      1624
 -1      1412    6    0    1
 -2       245        41      1031      1163       246      1061      1634      1636      1635      1205
 -1      1413    6    0    1
 -2      1031       245        40      1033      1634       247      1633      1064      1624      1623
 -1      1414    6    0    1
 -2        40       245      1031      1163       247      1634      1633      1632      1636      1205
 -1      1415    6    0    1
 -2       907       249      1163        27      1637      1360      1182      1638       251      1311
 -1      1416    6    0    1
 -2       202       249       907        27       801      1637       921       800       251      1638
 -1      1417    6    0    1
 -2       370       365       697       691       523      1527      1631      1221      1341       762
 -1      1418    6    0    1
 -2       368       363       698       385       513      1383      1326       417       514      1330
 -1      1419    6    0    1
 -2       363       368       698       690       513      1326      1383      1435      1275       757
 -1      1420    6    0    1
 -2       975       977        33       978      1030      1625      1639       997      1029      1602
 -1      1421    6    0    1
 -2        33       977       975       184      1625      1030      1639       186      1228      1223
 -1      1422    6    0    1
 -2        36       975        33       978       996      1639       198       998       997      1602
 -1      1423    6    0    1
 -2        33       975        36       184      1639       996       198       186      1223       787
 -1      1424    6    0    1
 -2       132       612       379       546       627      1630      1502       549      1618      1598
 -1      1425    6    0    1
 -2       379       612       132       603      1630       627      1502      1501       663       662
 -1      1426    6    0    1
 -2       613       611       384       364       653      1258      1640      1553      1406       440
 -1      1427    6    0    1
 -2       384       611       613       317      1258       653      1640      1256      1259      1589
 -1      1428    6    0    1
 -2       315       613       384       364      1418      1640      1641      1586      1553       440
 -1      1429    6    0    1
 -2       384       613       315       317      1640      1418      1641      1256      1589       328
 -1      1430    6    0    1
 -2        88       315       384       364       334      1641       402       439      1586       440
 -1      1431    6    0    1
 -2       384       315        88       317      1641       334       402      1256       328       321
 -1      1432    6    0    1
 -2       245       872      1163        40      1642      1181      1636       247      1605      1632
 -1      1433    6    0    1
 -2       245       224       872        40       823       885      1642       247       822      1605
 -1      1434    6    0    1
 -2       179      1040       147        31      1371      1407      1492       181      1582      1357
 -1      1435    6    0    1
 -2      1040       179       147       954      1371      1492      1407      1372      1373       956
 -1      1436    6    0    1
 -2       370       365       339       697       523      1573      1512      1631      1527      1475
 -1      1437    6    0    1
 -2       339       365       370       387      1573       523      1512      1616       453       431
 -1      1438    6    0    1
 -2       363       700       394       707      1382      1454       517      1416       761      1415
 -1      1439    6    0    1
 -2       394       700       363       383      1454      1382       517       519      1425       518
 -1      1440    6    0    1
 -2       690       377       707       363      1436      1417       758      1435       515      1416
 -1      1441    6    0    1
 -2       707       377       690       695      1417      1436       758       759      1567       748
 -1      1442    6    0    1
 -2       872        41      1163       870      1643      1635      1181       887      1287      1194
 -1      1443    6    0    1
 -2        41       872      1163       245      1643      1181      1635       246      1642      1636
 -1      1444    6    0    1
 -2       224        41       872       870       829      1643       885       884      1287       887
 -1      1445    6    0    1
 -2        41       224       872       245       829       885      1643       246       823      1642
 -1      1446    6    0    1
 -2       367       702       399       165      1644      1523       542      1385       753      1384
 -1      1447    6    0    1
 -2       399       702       367       396      1523      1644       542       501      1522       540
 -1      1448    6    0    1
 -2       367       164       702       165      1437       752      1644      1385       167       753
 -1      1449    6    0    1
 -2       702       164       367       396       752      1437      1644      1522      1563       540
 -1      1450    6    0    1
 -2       194       973        32       184      1016      1488       784       785      1235       185
 -1      1451    6    0    1
 -2        32       973       194       188      1488      1016       784       191      1462       786
 -1      1452    6    0    1
 -2       174      1034        28       180      1077      1361       778       780      1344       183
 -1      1453    6    0    1
 -2        28      1034       174       169      1361      1077       778       171      1200       779
 -1      1454    6    0    1
 -2       566       110        25       389       594      1530      1467      1464       458      1466
 -1      1455    6    0    1
 -2        25       110       566        22      1530       594      1467       162       591       588
 -1      1456    6    0    1
 -2       367       615       392       397      1645      1548       541       538      1546       490
 -1      1457    6    0    1
 -2       392       615       367       156      1548      1645       541      1451       665      1442
 -1      1458    6    0    1
 -2       367       155       615       397      1439       666      1645       538      1569      1546
 -1      1459    6    0    1
 -2       615       155       367       156       666      1439      1645       665       158      1442
 -1      1460    6    0    1
 -2        90       316       382       386       325      1363       441       424      1351       444
 -1      1461    6    0    1
 -2       316        90       382       314       325       441      1363       332       335      1449
 -1      1462    6    0    1
 -2        95       340       383       385       344      1531       446       415      1331       447
 -1      1463    6    0    1
 -2       383       340        95       337      1531       344       446      1426       351       350
 -1      1464    6    0    1
 -2       365       338       697       696      1574      1476      1527      1485      1347       744
 -1      1465    6    0    1
 -2       697       338       365       339      1476      1574      1527      1475       355      1573
 -1      1466    6    0    1
 -2       382       314       610       316      1449      1477      1324      1363       332      1322
 -1      1467    6    0    1
 -2       314       382       610       609      1449      1324      1477      1349      1450       657
 -1      1468    6    0    1
 -2      1041       290       240       954      1079       964      1230      1374       957       969
 -1      1469    6    0    1
 -2       240       290      1041      1043       964      1079      1230      1164      1068      1080
 -1      1470    6    0    1
 -2       570       147      1158        31       598      1319      1299      1354      1357      1161
 -1      1471    6    0    1
 -2      1158       147       570       567      1319       598      1299      1274       587       601
 -1      1472    6    0    1
 -2       169       907        27       202      1615      1638       170       799       921       800
 -1      1473    6    0    1
 -2       907       169        27      1163      1615       170      1638      1182      1204      1311
 -1      1474    6    0    1
 -2       907        42       202       905      1646       833       921       922      1315       919
 -1      1475    6    0    1
 -2        42       907       202       249      1646       921       833       250      1637       801
 -1      1476    6    0    1
 -2      1163        42       907       905      1292      1646      1182      1202      1315       922
 -1      1477    6    0    1
 -2        42      1163       907       249      1292      1182      1646       250      1360      1637
 -1      1478    6    0    1
 -2      1039       565        24        19      1380      1377      1046      1045       584       161
 -1      1479    6    0    1
 -2        24       565      1039        23      1377      1380      1046       160      1379      1271
 -1      1480    6    0    1
 -2       372       382       618       393       443      1519      1647       483       511      1518
 -1      1481    6    0    1
 -2       382       372       618       609       443      1647      1519      1450      1392       679
 -1      1482    6    0    1
 -2       372       618       605       393      1647       688      1338       483      1518      1580
 -1      1483    6    0    1
 -2       618       372       605       609      1647      1338       688       679      1392       686
 -1      1484    6    0    1
 -2       702       703       399       165       755      1549      1523       753       737      1384
 -1      1485    6    0    1
 -2       399       703       702       361      1549       755      1523       502      1514      1521
 -1      1486    6    0    1
 -2       360       397       608       375       486      1558      1648       482       485      1355
 -1      1487    6    0    1
 -2       608       397       360       615      1558       486      1648       683      1546      1547
 -1      1488    6    0    1
 -2       605       360       608       375      1500      1648       682      1337       482      1355
 -1      1489    6    0    1
 -2       608       360       605       615      1648      1500       682       683      1547       684
 -1      1490    6    0    1
 -2       981       241       293       953      1313       962      1019      1369       967       960
 -1      1491    6    0    1
 -2       293       241       981       983       962      1313      1019      1009      1209      1020
 -1      1492    6    0    1
 -2         4        49       606        53       304       621      1649        55       303      1578
 -1      1493    6    0    1
 -2       369       606         4       546      1234      1649       405      1622      1620       547
 -1      1494    6    0    1
 -2         4       606       369        53      1649      1234       405        55      1578       400
 -1      1495    6    0    1
 -2       693        57         7        61       708       305      1650      1596       307        62
 -1      1496    6    0    1
 -2       693         7       368        61      1650       410      1266      1596        62       409
 -1      1497    6    0    1
 -2         7       693       368       545      1650      1266       410       551      1268      1269
 -1      1498    6    0    1
 -2       607         9        69        65       631       308      1594       630        66       309
 -1      1499    6    0    1
 -2        77        14       370        73       312      1651       427       313        75      1568
 -1      1500    6    0    1
 -2       370       694        14       569      1216       722      1651      1219      1220       576
 -1      1501    6    0    1
 -2        14       694       370        73       722      1216      1651        75       717      1568
 -1      1502    6    0    1
 -2       257       874        45       971      1652      1358       259      1627      1198      1000
 -1      1503    6    0    1
 -2        45       874       257       909      1358      1652       259      1389      1189      1591
 -1      1504    6    0    1
 -2       257        33       874       971       258      1653      1652      1627      1626      1198
 -1      1505    6    0    1
 -2       874        33       257       909      1653       258      1652      1189      1592      1591
 -1      1506    6    0    1
 -2        33       184       874       971       186      1197      1653      1626      1187      1198
 -1      1507    6    0    1
 -2       874       184        33       909      1197       186      1653      1189      1284      1592
 -1      1508    6    0    1
 -2       870        42      1163       905      1286      1292      1194      1227      1315      1202
 -1      1509    6    0    1
 -2      1163        42        41      1031      1292       248      1635      1205      1060      1061
 -1      1510    6    0    1
 -2        41        42      1163       870       248      1292      1635      1287      1286      1194
 -1      1511    6    0    1
 -2       872       240        40       797      1172       242      1605      1606       826       824
 -1      1512    6    0    1
 -2       240       872        40      1163      1172      1605       242      1413      1181      1632
 -1      1513    6    0    1
 -2       606         2         4       546       626        56      1649      1620       548       547
 -1      1514    6    0    1
 -2         4         2       606        49        56       626      1649       304        51       621
 -1      1515    6    0    1
 -2       693         5         7        57       709        60      1650       708        58       305
 -1      1516    6    0    1
 -2         7         5       693       545        60       709      1650       551       552      1268
 -1      1517    6    0    1
 -2       607        11         9       568      1654        68       631      1254       571       572
 -1      1518    6    0    1
 -2         9        11       607        69        68      1654       631       308        70      1594
 -1      1519    6    0    1
 -2       607       371        11       568      1247       419      1654      1254      1252       571
 -1      1520    6    0    1
 -2        11       371       607        69       419      1247      1654        70       418      1594
 -1      1521    6    0    1
 -2       370        14        16       569      1651        80       432      1219       576       575
 -1      1522    6    0    1
 -2        16        14       370        77        80      1651       432        79       312       427
 -3
    1PSTEP                         1           1           1          
  100CL  101 1.000000000        1654                     0    1           1
 -4  DISP        4    1
 -5  D1          1    2    1    0
 -5  D2          1    2    2    0
 -5  D3          1    2    3    0
 -5  ALL         1    2    0    0    1ALL
 -1         1-4.36932E-09-5.29041E-09 9.91058E-10
 -1         2-2.59897E-09-7.45116E-09-4.91160E-10
 -1         3 0.00000E+00 0.00000E+00 0.00000E+00
 -1         4 0.00000E+00 0.00000E+00 0.00000E+00
 -1         5-2.45693E-09 7.29100E-09-3.74448E-10
 -1         6-4.19668E-09 5.37540E-09 1.06278E-09
 -1         7 0.00000E+00 0.00000E+00 0.00000E+00
 -1         8 0.00000E+00 0.00000E+00 0.00000E+00
 -1         9-4.46233E-09 1.99867E-08 3.78891E-10
 -1        10-5.26008E-09 1.80623E-08-3.90357E-09
 -1        11 0.00000E+00 0.00000E+00 0.00000E+00
 -1        12 0.00000E+00 0.00000E+00 0.00000E+00
 -1        13-5.32290E-09-1.83916E-08-3.80389E-09
 -1        14-4.62872E-09-1.97363E-08 6.82207E-10
 -1        15 0.00000E+00 0.00000E+00 0.00000E+00
 -1        16 0.00000E+00 0.00000E+00 0.00000E+00
 -1        17 1.71468E-07-2.28441E-08 1.44584E-07
 -1        18 1.65383E-07 2.40860E-08 1.41858E-07
 -1        19 1.37387E-08 7.64442E-08-1.82666E-07
 -1        20-3.30751E-08 3.95392E-07-8.14014E-07
 -1        21-1.32296E-08-3.82713E-07-8.09203E-07
 -1        22 1.26984E-08-7.64624E-08-1.80693E-07
 -1        23 2.21038E-09 1.02130E-08-9.41136E-08
 -1        24-4.26361E-08 2.50809E-08-5.99468E-08
 -1        25-4.38042E-08-2.39266E-08-5.52903E-08
 -1        26-9.94879E-10-1.10528E-08-9.32878E-08
 -1        27 5.60854E-06-5.51798E-08-5.24786E-06
 -1        28 5.00355E-06-3.49483E-08-3.28032E-06
 -1        29 5.58756E-06-8.45091E-08-5.20666E-06
 -1        30 1.14441E-08-6.10033E-08 1.12052E-07
 -1        31 2.99841E-07 1.63908E-08-7.17611E-08
 -1        32 4.99351E-06 9.09383E-08-3.27645E-06
 -1        33 5.61593E-06 1.24622E-07-5.20541E-06
 -1        34 3.06041E-07-1.55513E-08-5.38161E-08
 -1        35 2.29843E-08 6.79086E-08 1.23477E-07
 -1        36 5.60528E-06 1.54823E-07-5.15588E-06
 -1        37 7.28391E-06 7.13025E-08-2.05369E-05
 -1        38-8.87559E-07 3.67106E-08-2.04970E-05
 -1        39 7.64743E-07-1.04763E-07-5.11334E-06
 -1        40 7.23951E-07 1.35875E-07-5.15780E-06
 -1        41 6.47918E-07 1.26993E-07-6.09265E-06
 -1        42 5.67152E-06-4.48210E-08-6.15367E-06
 -1        43 5.37437E-06-3.01763E-08-3.27944E-06
 -1        44 5.35478E-06 9.32114E-08-3.27999E-06
 -1        45 5.68999E-06 1.19004E-07-6.10625E-06
 -1        46 6.74784E-07-9.10273E-08-6.04857E-06
 -1        47 7.48808E-07 1.77628E-07-5.11193E-06
 -1        48 7.81331E-07-1.43643E-07-5.06813E-06
 -1        49-3.87760E-09-6.85212E-09 4.61832E-10
 -1        50-4.22834E-09-6.13400E-09 8.18008E-10
 -1        51-3.26185E-09-7.23173E-09-3.60270E-11
 -1        52-2.76669E-09-3.48462E-09 1.08644E-09
 -1        53 0.00000E+00 0.00000E+00 0.00000E+00
 -1        54 0.00000E+00 0.00000E+00 0.00000E+00
 -1        55 0.00000E+00 0.00000E+00 0.00000E+00
 -1        56-1.52407E-09-4.59611E-09-2.40447E-10
 -1        57-3.66744E-09 6.78625E-09 5.46636E-10
 -1        58-3.07265E-09 7.11921E-09 6.04790E-11
 -1        59-4.03333E-09 6.13612E-09 8.89308E-10
 -1        60-1.56308E-09 4.72572E-09-2.27450E-10
 -1        61 0.00000E+00 0.00000E+00 0.00000E+00
 -1        62 0.00000E+00 0.00000E+00 0.00000E+00
 -1        63 0.00000E+00 0.00000E+00 0.00000E+00
 -1        64-2.65485E-09 3.48976E-09 1.11524E-09
 -1        65-5.28339E-09 1.92581E-08-2.22381E-09
 -1        66-4.85114E-09 1.97183E-08-9.73253E-10
 -1        67-5.35318E-09 1.86759E-08-3.39234E-09
 -1        68-2.02562E-09 1.33006E-08-2.58336E-10
 -1        69 0.00000E+00 0.00000E+00 0.00000E+00
 -1        70 0.00000E+00 0.00000E+00 0.00000E+00
 -1        71 0.00000E+00 0.00000E+00 0.00000E+00
 -1        72-3.28934E-09 1.23648E-08-4.22117E-09
 -1        73-4.94350E-09-1.94136E-08-2.20919E-09
 -1        74-5.16498E-09-1.89821E-08-3.35676E-09
 -1        75-4.73659E-09-1.96044E-08-7.88769E-10
 -1        76-3.27484E-09-1.19533E-08-4.08090E-09
 -1        77 0.00000E+00 0.00000E+00 0.00000E+00
 -1        78 0.00000E+00 0.00000E+00 0.00000E+00
 -1        79 0.00000E+00 0.00000E+00 0.00000E+00
 -1        80-1.93733E-09-1.27745E-08-8.08086E-11
 -1        81-4.38715E-09 5.25005E-10-9.53545E-11
 -1        82-5.04845E-09 6.38024E-09-1.46291E-09
 -1        83-5.39530E-09 1.27108E-08-2.92085E-09
 -1        84-4.18272E-09-2.55502E-09 6.55731E-10
 -1        85-4.71297E-09 3.58094E-09-8.37261E-10
 -1        86-5.48747E-09 9.47909E-09-2.04493E-09
 -1        87-5.30532E-09 1.58679E-08-3.72000E-09
 -1        88 0.00000E+00 0.00000E+00 0.00000E+00
 -1        89 0.00000E+00 0.00000E+00 0.00000E+00
 -1        90 0.00000E+00 0.00000E+00 0.00000E+00
 -1        91 0.00000E+00 0.00000E+00 0.00000E+00
 -1        92 0.00000E+00 0.00000E+00 0.00000E+00
 -1        93 0.00000E+00 0.00000E+00 0.00000E+00
 -1        94 0.00000E+00 0.00000E+00 0.00000E+00
 -1        95 0.00000E+00 0.00000E+00 0.00000E+00
 -1        96 0.00000E+00 0.00000E+00 0.00000E+00
 -1        97 0.00000E+00 0.00000E+00 0.00000E+00
 -1        98 0.00000E+00 0.00000E+00 0.00000E+00
 -1        99 0.00000E+00 0.00000E+00 0.00000E+00
 -1       100 0.00000E+00 0.00000E+00 0.00000E+00
 -1       101 0.00000E+00 0.00000E+00 0.00000E+00
 -1       102-4.32089E-09-3.90043E-10-7.77468E-11
 -1       103-5.08223E-09-6.41083E-09-1.69936E-09
 -1       104-5.47470E-09-1.28461E-08-3.05144E-09
 -1       105-4.09869E-09 2.64959E-09 6.67868E-10
 -1       106-4.66090E-09-3.47183E-09-9.32326E-10
 -1       107-5.54820E-09-9.63220E-09-2.40198E-09
 -1       108-5.32957E-09-1.58073E-08-3.60728E-09
 -1       109 0.00000E+00 0.00000E+00 0.00000E+00
 -1       110 0.00000E+00 0.00000E+00 0.00000E+00
 -1       111 0.00000E+00 0.00000E+00 0.00000E+00
 -1       112 0.00000E+00 0.00000E+00 0.00000E+00
 -1       113 0.00000E+00 0.00000E+00 0.00000E+00
 -1       114 0.00000E+00 0.00000E+00 0.00000E+00
 -1       115 0.00000E+00 0.00000E+00 0.00000E+00
 -1       116 0.00000E+00 0.00000E+00 0.00000E+00
 -1       117 0.00000E+00 0.00000E+00 0.00000E+00
 -1       118 0.00000E+00 0.00000E+00 0.00000E+00
 -1       119 0.00000E+00 0.00000E+00 0.00000E+00
 -1       120 0.00000E+00 0.00000E+00 0.00000E+00
 -1       121 0.00000E+00 0.00000E+00 0.00000E+00
 -1       122 0.00000E+00 0.00000E+00 0.00000E+00
 -1       123 0.00000E+00 0.00000E+00 0.00000E+00
 -1       124 0.00000E+00 0.00000E+00 0.00000E+00
 -1       125 0.00000E+00 0.00000E+00 0.00000E+00
 -1       126 0.00000E+00 0.00000E+00 0.00000E+00
 -1       127 0.00000E+00 0.00000E+00 0.00000E+00
 -1       128 0.00000E+00 0.00000E+00 0.00000E+00
 -1       129 0.00000E+00 0.00000E+00 0.00000E+00
 -1       130 0.00000E+00 0.00000E+00 0.00000E+00
 -1       131 3.27541E-08-2.23253E-08 1.56690E-08
 -1       132 3.41632E-09-1.21087E-08-5.57253E-10
 -1       133 8.27817E-08-2.77050E-08 5.50945E-08
 -1       134 1.44877E-08-1.65914E-08 4.93268E-09
 -1       135-6.39437E-10-8.58160E-09-1.06146E-09
 -1       136 3.08716E-09 1.19314E-08-6.06165E-10
 -1       137 3.15771E-08 2.34499E-08 1.45592E-08
 -1       138-5.88655E-10 8.41223E-09-1.05972E-09
 -1       139 1.36525E-08 1.68492E-08 4.41074E-09
 -1       140 8.13561E-08 2.87129E-08 5.27994E-08
 -1       141 1.91121E-07-3.50850E-10 1.67392E-07
 -1       142-3.49081E-09 1.86943E-08-2.93528E-09
 -1       143 6.61845E-09 3.16986E-08-4.05625E-08
 -1       144-3.81884E-09 1.95421E-08 2.63497E-09
 -1       145-7.08325E-08 2.63305E-07-4.59518E-07
 -1       146 2.23774E-07-1.32219E-07-9.62292E-07
 -1       147 2.42033E-07 1.42688E-07-9.21753E-07
 -1       148 1.45476E-07-2.59071E-07-8.57351E-07
 -1       149 2.77993E-07 4.69936E-09-9.67751E-07
 -1       150 1.42185E-07 2.69528E-07-8.52723E-07
 -1       151-6.31665E-08-2.53830E-07-4.45771E-07
 -1       152-3.30404E-09-1.84750E-08-3.07183E-09
 -1       153-3.87343E-09-1.92664E-08 2.68599E-09
 -1       154 6.44886E-09-3.16708E-08-4.04871E-08
 -1       155 1.26961E-07-2.97285E-09 8.20287E-08
 -1       156 7.17119E-08 1.05915E-09 5.90138E-08
 -1       157 1.48330E-07-8.47362E-09 9.96578E-08
 -1       158 1.06399E-07 1.54656E-09 8.02834E-08
 -1       159 3.59037E-08 5.56595E-09 1.09108E-08
 -1       160-2.35479E-08 1.67952E-08-7.89314E-08
 -1       161-3.67739E-08 5.49806E-08-1.40677E-07
 -1       162-3.68529E-08-5.44573E-08-1.38568E-07
 -1       163-2.66018E-08-1.68376E-08-7.65219E-08
 -1       164 1.25260E-07 3.77040E-09 8.70959E-08
 -1       165 7.65287E-08-2.76442E-09 6.45049E-08
 -1       166 1.47640E-07 7.19960E-09 9.21357E-08
 -1       167 1.06310E-07 7.20100E-10 7.89111E-08
 -1       168 3.57242E-08-6.03307E-09 1.07804E-08
 -1       169 5.35922E-06-6.60375E-08-3.98630E-06
 -1       170 5.50741E-06-6.30275E-08-4.54486E-06
 -1       171 5.18515E-06-5.54651E-08-3.56560E-06
 -1       172 5.59909E-06-7.05878E-08-5.22650E-06
 -1       173 1.38962E-06-1.55372E-07 3.17806E-07
 -1       174 3.89421E-06-2.24202E-07-1.15787E-06
 -1       175 5.32465E-07-1.03901E-07 3.12995E-07
 -1       176 2.59776E-06-2.04502E-07-1.12216E-07
 -1       177 4.98398E-06-1.94784E-07-2.91062E-06
 -1       178 1.68908E-07-7.73096E-09 3.36527E-08
 -1       179 1.27132E-06-1.97798E-08-7.40566E-08
 -1       180 3.00256E-06-4.77912E-08-8.25511E-07
 -1       181 6.62460E-07 6.67627E-09-2.03276E-08
 -1       182 2.02320E-06-2.66452E-08-2.62533E-07
 -1       183 4.05890E-06-7.07882E-08-1.81476E-06
 -1       184 5.35089E-06 1.23957E-07-3.97423E-06
 -1       185 5.17486E-06 1.09101E-07-3.55800E-06
 -1       186 5.50612E-06 1.26392E-07-4.51591E-06
 -1       187 1.25005E-06 3.30839E-08-6.72402E-08
 -1       188 2.99894E-06 7.16835E-08-8.51451E-07
 -1       189 6.75363E-07-3.38539E-09-6.84679E-09
 -1       190 2.02123E-06 4.35519E-08-2.77148E-07
 -1       191 4.05430E-06 1.05249E-07-1.82612E-06
 -1       192 1.80503E-07 1.18461E-08 4.93271E-08
 -1       193 1.41954E-06 1.64933E-07 3.29928E-07
 -1       194 3.91989E-06 2.63555E-07-1.13815E-06
 -1       195 5.54628E-07 1.09175E-07 3.22930E-07
 -1       196 2.62710E-06 2.29906E-07-9.76621E-08
 -1       197 5.01021E-06 2.46498E-07-2.88612E-06
 -1       198 5.61280E-06 1.39849E-07-5.18073E-06
 -1       199 7.25201E-06 5.50514E-08-1.87959E-05
 -1       200 7.19183E-06-2.11956E-09-1.41995E-05
 -1       201 7.09681E-06-6.04075E-08-8.65323E-06
 -1       202 6.85442E-06-8.05037E-08-4.44053E-06
 -1       203 6.52449E-06 3.67835E-08-3.09776E-06
 -1       204 6.86629E-06 1.41997E-07-4.40608E-06
 -1       205 7.12635E-06 1.56504E-07-8.58701E-06
 -1       206 7.22241E-06 1.20380E-07-1.41265E-05
 -1       207 7.27314E-06 8.04772E-08-1.87523E-05
 -1       208 7.27277E-06 6.49475E-08-2.00963E-05
 -1       209 7.22408E-06 3.07376E-08-1.67611E-05
 -1       210 7.15602E-06-4.02363E-08-1.13817E-05
 -1       211 6.99778E-06-7.31600E-08-6.26438E-06
 -1       212 6.68692E-06-4.12311E-08-3.38636E-06
 -1       213 6.65375E-06 1.08844E-07-3.38724E-06
 -1       214 7.02523E-06 1.54191E-07-6.20583E-06
 -1       215 7.18877E-06 1.46399E-07-1.13101E-05
 -1       216 7.25181E-06 9.64415E-08-1.66986E-05
 -1       217 7.28397E-06 7.57296E-08-2.00742E-05
 -1       218 3.19963E-06 5.46060E-08-2.05107E-05
 -1       219 5.24036E-06 6.29390E-08-2.05217E-05
 -1       220 1.15778E-06 4.58339E-08-2.05014E-05
 -1       221-8.80938E-07 6.30643E-08-1.87546E-05
 -1       222-8.46593E-07 1.04421E-07-1.41766E-05
 -1       223-7.71294E-07 1.41629E-07-8.62914E-06
 -1       224-5.22296E-07 1.42813E-07-4.32782E-06
 -1       225 3.69658E-08 1.18681E-09-2.85769E-06
 -1       226-5.01321E-07-9.86535E-08-4.29700E-06
 -1       227-7.40046E-07-1.09326E-07-8.56199E-06
 -1       228-8.12973E-07-5.17284E-08-1.41063E-05
 -1       229-8.58503E-07 3.43869E-09-1.87076E-05
 -1       230-8.88885E-07 5.02235E-08-2.00571E-05
 -1       231-8.67420E-07 8.35851E-08-1.67232E-05
 -1       232-8.17853E-07 1.25863E-07-1.13785E-05
 -1       233-6.87230E-07 1.51578E-07-6.18979E-06
 -1       234-1.70535E-07 8.81196E-08-3.19186E-06
 -1       235-1.33457E-07-6.54367E-08-3.17347E-06
 -1       236-6.65290E-07-1.22336E-07-6.13732E-06
 -1       237-7.83590E-07-8.38737E-08-1.13067E-05
 -1       238-8.38837E-07-2.29055E-08-1.66617E-05
 -1       239-8.76149E-07 2.14105E-08-2.00309E-05
 -1       240 6.46750E-07 8.52936E-08-3.05239E-06
 -1       241 6.53115E-07-6.00448E-08-3.03854E-06
 -1       242 7.37109E-07 1.21930E-07-3.84222E-06
 -1       243 5.39070E-07 1.03257E-08-2.83594E-06
 -1       244 7.61635E-07-9.83995E-08-3.82665E-06
 -1       245 6.82771E-07 1.31074E-07-5.60873E-06
 -1       246 6.64796E-07 1.28925E-07-5.84673E-06
 -1       247 7.02703E-07 1.33492E-07-5.37883E-06
 -1       248 3.15873E-06 4.09607E-08-6.08634E-06
 -1       249 5.64134E-06-4.93723E-08-5.68326E-06
 -1       250 5.65662E-06-4.69554E-08-5.91439E-06
 -1       251 5.62512E-06-5.22628E-08-5.46093E-06
 -1       252 5.18718E-06-3.38607E-08-3.27963E-06
 -1       253 5.16859E-06 2.49369E-08-3.10976E-06
 -1       254 5.24610E-06-3.29327E-09-3.14551E-06
 -1       255 5.23595E-06 5.81423E-08-3.14734E-06
 -1       256 5.17311E-06 9.29123E-08-3.27821E-06
 -1       257 5.65391E-06 1.21535E-07-5.63679E-06
 -1       258 5.63503E-06 1.22995E-07-5.41623E-06
 -1       259 5.67199E-06 1.20030E-07-5.86717E-06
 -1       260 3.19009E-06 1.25679E-08-6.03899E-06
 -1       261 7.12723E-07-9.67931E-08-5.56640E-06
 -1       262 7.37090E-07-1.01027E-07-5.33581E-06
 -1       263 6.92904E-07-9.36732E-08-5.80360E-06
 -1       264 5.63195E-06-6.04283E-08-5.67895E-06
 -1       265 6.90248E-07 1.44291E-07-5.60656E-06
 -1       266 7.30781E-07 1.57084E-07-5.13942E-06
 -1       267 5.65086E-06 1.32392E-07-5.62845E-06
 -1       268 3.95966E-07-2.99239E-08 2.13989E-07
 -1       269 6.45700E-07-4.74189E-08 2.94822E-07
 -1       270 1.09006E-06-7.37476E-08 3.77078E-07
 -1       271 1.93994E-06-1.25214E-07 2.82494E-07
 -1       272 3.44271E-06-1.79887E-07-5.35048E-07
 -1       273 2.86169E-07-2.98179E-08 1.88439E-07
 -1       274 5.06108E-07-3.92940E-08 2.52816E-07
 -1       275 8.30777E-07-5.95013E-08 3.49388E-07
 -1       276 1.44496E-06-9.70297E-08 3.77886E-07
 -1       277 2.59442E-06-1.57550E-07 3.17550E-08
 -1       278 4.41043E-06-1.49018E-07-1.62019E-06
 -1       279 4.02329E-07 1.57937E-08 2.10493E-07
 -1       280 6.48521E-07 3.84729E-08 2.96446E-07
 -1       281 1.10017E-06 6.96414E-08 3.81753E-07
 -1       282 1.93044E-06 1.35710E-07 2.89041E-07
 -1       283 3.46483E-06 1.86253E-07-5.46387E-07
 -1       284 2.94644E-07 1.75897E-08 1.85902E-07
 -1       285 5.12433E-07 2.53550E-08 2.50705E-07
 -1       286 8.38509E-07 5.27972E-08 3.51246E-07
 -1       287 1.45026E-06 9.89695E-08 3.77358E-07
 -1       288 2.60203E-06 1.62756E-07 2.34767E-08
 -1       289 4.41411E-06 1.74228E-07-1.62748E-06
 -1       290 4.86224E-07 4.37196E-07-2.07120E-06
 -1       291 1.52482E-07 4.47112E-07-1.26051E-06
 -1       292 7.64512E-07 3.23980E-07-3.38364E-06
 -1       293 5.12804E-07-4.15956E-07-2.05095E-06
 -1       294 1.76309E-07-4.29841E-07-1.25013E-06
 -1       295 7.89718E-07-3.00717E-07-3.35319E-06
 -1       296 7.64914E-07-1.24364E-07-5.09553E-06
 -1       297 7.20148E-07-1.09826E-07-5.56232E-06
 -1       298-1.30604E-07 1.47958E-08-7.24204E-08
 -1       299-1.32425E-07-9.26200E-09-8.15173E-08
 -1       300 8.25262E-08 1.04473E-08-1.03899E-07
 -1       301 9.11208E-08-1.42194E-08-9.01823E-08
 -1       302-2.64861E-09-3.96881E-09 9.06049E-10
 -1       303-2.17896E-09-4.03494E-09 5.26250E-10
 -1       304-1.96467E-09-4.56000E-09 1.02332E-10
 -1       305-1.92385E-09 4.54775E-09 1.44651E-10
 -1       306-2.52591E-09 3.92748E-09 9.48229E-10
 -1       307-2.25448E-09 4.28597E-09 5.77104E-10
 -1       308-2.24705E-09 1.31767E-08-1.52273E-09
 -1       309-2.62861E-09 1.30223E-08-2.89995E-09
 -1       310-2.93478E-09 1.27326E-08-3.86756E-09
 -1       311-3.01277E-09-1.23472E-08-3.79341E-09
 -1       312-2.34984E-09-1.28231E-08-1.37103E-09
 -1       313-2.66739E-09-1.26679E-08-2.72906E-09
 -1       314-4.11397E-09 6.23301E-09-2.07334E-09
 -1       315-3.59261E-09 2.22084E-09-8.75674E-10
 -1       316-4.00792E-09 1.03023E-08-3.87472E-09
 -1       317-3.05576E-09-1.36289E-09 5.03502E-10
 -1       318-1.74749E-09-1.35835E-09 6.96881E-10
 -1       319-3.82060E-09-3.19451E-09 9.29987E-10
 -1       320-4.05838E-09-6.75384E-10 2.04899E-10
 -1       321-1.86326E-09-2.28980E-10 9.31320E-11
 -1       322-2.11418E-09 6.31960E-09-3.09608E-09
 -1       323-4.72946E-09 1.47267E-08-4.17608E-09
 -1       324-5.22837E-09 1.21486E-08-3.41801E-09
 -1       325-2.34176E-09 5.22850E-09-2.66709E-09
 -1       326-4.62585E-09 4.26066E-09-1.21193E-09
 -1       327-4.35812E-09 1.74602E-09-5.28661E-10
 -1       328-3.31796E-09 4.38144E-10-2.41898E-10
 -1       329-5.21644E-09 9.48685E-09-2.47132E-09
 -1       330-5.02434E-09 6.78525E-09-1.79674E-09
 -1       331-3.86609E-09 4.16126E-09-1.59173E-09
 -1       332-4.27439E-09 8.41592E-09-3.22913E-09
 -1       333-2.24010E-09 1.84740E-09-8.37145E-10
 -1       334-1.93221E-09 7.08984E-10-4.19064E-10
 -1       335-2.58872E-09 4.23099E-09-2.05845E-09
 -1       336-2.24004E-09 2.81928E-09-1.33178E-09
 -1       337-3.62057E-09-2.18535E-09-1.00590E-09
 -1       338-4.17112E-09-6.07193E-09-2.41125E-09
 -1       339-3.85213E-09-1.03728E-08-3.89424E-09
 -1       340-3.03694E-09 1.42060E-09 5.22369E-10
 -1       341-1.65369E-09 1.30219E-09 6.05136E-10
 -1       342-3.73042E-09 3.29719E-09 9.69136E-10
 -1       343-4.00751E-09 7.75954E-10 2.16797E-10
 -1       344-1.84647E-09 3.13111E-10 1.59299E-10
 -1       345-4.69924E-09-1.49141E-08-4.08525E-09
 -1       346-2.10407E-09-6.26668E-09-3.38866E-09
 -1       347-5.19120E-09-1.23078E-08-3.43029E-09
 -1       348-2.34595E-09-5.19415E-09-2.77887E-09
 -1       349-2.19444E-09-1.62960E-09-8.24228E-10
 -1       350-2.02192E-09-7.11643E-10-4.76447E-10
 -1       351-3.31021E-09-3.81428E-10-2.27210E-10
 -1       352-2.35847E-09-3.74142E-09-1.69273E-09
 -1       353-2.34017E-09-2.80256E-09-1.49970E-09
 -1       354-3.93402E-09-4.10313E-09-1.77328E-09
 -1       355-4.13968E-09-8.45595E-09-3.29306E-09
 -1       356-4.33469E-09-1.62950E-09-5.53009E-10
 -1       357-4.66117E-09-4.17263E-09-1.38989E-09
 -1       358-5.07232E-09-6.75602E-09-2.12585E-09
 -1       359-5.32726E-09-9.66570E-09-2.72866E-09
 -1       360 0.00000E+00 0.00000E+00 0.00000E+00
 -1       361 0.00000E+00 0.00000E+00 0.00000E+00
 -1       362 0.00000E+00 0.00000E+00 0.00000E+00
 -1       363 0.00000E+00 0.00000E+00 0.00000E+00
 -1       364 0.00000E+00 0.00000E+00 0.00000E+00
 -1       365 0.00000E+00 0.00000E+00 0.00000E+00
 -1       366 0.00000E+00 0.00000E+00 0.00000E+00
 -1       367 0.00000E+00 0.00000E+00 0.00000E+00
 -1       368 0.00000E+00 0.00000E+00 0.00000E+00
 -1       369 0.00000E+00 0.00000E+00 0.00000E+00
 -1       370 0.00000E+00 0.00000E+00 0.00000E+00
 -1       371 0.00000E+00 0.00000E+00 0.00000E+00
 -1       372 0.00000E+00 0.00000E+00 0.00000E+00
 -1       373 0.00000E+00 0.00000E+00 0.00000E+00
 -1       374 0.00000E+00 0.00000E+00 0.00000E+00
 -1       375 0.00000E+00 0.00000E+00 0.00000E+00
 -1       376 0.00000E+00 0.00000E+00 0.00000E+00
 -1       377 0.00000E+00 0.00000E+00 0.00000E+00
 -1       378 0.00000E+00 0.00000E+00 0.00000E+00
 -1       379 0.00000E+00 0.00000E+00 0.00000E+00
 -1       380 0.00000E+00 0.00000E+00 0.00000E+00
 -1       381 0.00000E+00 0.00000E+00 0.00000E+00
 -1       382 0.00000E+00 0.00000E+00 0.00000E+00
 -1       383 0.00000E+00 0.00000E+00 0.00000E+00
 -1       384 0.00000E+00 0.00000E+00 0.00000E+00
 -1       385 0.00000E+00 0.00000E+00 0.00000E+00
 -1       386 0.00000E+00 0.00000E+00 0.00000E+00
 -1       387 0.00000E+00 0.00000E+00 0.00000E+00
 -1       388 0.00000E+00 0.00000E+00 0.00000E+00
 -1       389 0.00000E+00 0.00000E+00 0.00000E+00
 -1       390 0.00000E+00 0.00000E+00 0.00000E+00
 -1       391 0.00000E+00 0.00000E+00 0.00000E+00
 -1       392 0.00000E+00 0.00000E+00 0.00000E+00
 -1       393 0.00000E+00 0.00000E+00 0.00000E+00
 -1       394 0.00000E+00 0.00000E+00 0.00000E+00
 -1       395 0.00000E+00 0.00000E+00 0.00000E+00
 -1       396 0.00000E+00 0.00000E+00 0.00000E+00
 -1       397 0.00000E+00 0.00000E+00 0.00000E+00
 -1       398 0.00000E+00 0.00000E+00 0.00000E+00
 -1       399 0.00000E+00 0.00000E+00 0.00000E+00
 -1       400 0.00000E+00 0.00000E+00 0.00000E+00
 -1       401 0.00000E+00 0.00000E+00 0.00000E+00
 -1       402 0.00000E+00 0.00000E+00 0.00000E+00
 -1       403 0.00000E+00 0.00000E+00 0.00000E+00
 -1       404 0.00000E+00 0.00000E+00 0.00000E+00
 -1       405 0.00000E+00 0.00000E+00 0.00000E+00
 -1       406 0.00000E+00 0.00000E+00 0.00000E+00
 -1       407 0.00000E+00 0.00000E+00 0.00000E+00
 -1       408 0.00000E+00 0.00000E+00 0.00000E+00
 -1       409 0.00000E+00 0.00000E+00 0.00000E+00
 -1       410 0.00000E+00 0.00000E+00 0.00000E+00
 -1       411 0.00000E+00 0.00000E+00 0.00000E+00
 -1       412 0.00000E+00 0.00000E+00 0.00000E+00
 -1       413 0.00000E+00 0.00000E+00 0.00000E+00
 -1       414 0.00000E+00 0.00000E+00 0.00000E+00
 -1       415 0.00000E+00 0.00000E+00 0.00000E+00
 -1       416 0.00000E+00 0.00000E+00 0.00000E+00
 -1       417 0.00000E+00 0.00000E+00 0.00000E+00
 -1       418 0.00000E+00 0.00000E+00 0.00000E+00
 -1       419 0.00000E+00 0.00000E+00 0.00000E+00
 -1       420 0.00000E+00 0.00000E+00 0.00000E+00
 -1       421 0.00000E+00 0.00000E+00 0.00000E+00
 -1       422 0.00000E+00 0.00000E+00 0.00000E+00
 -1       423 0.00000E+00 0.00000E+00 0.00000E+00
 -1       424 0.00000E+00 0.00000E+00 0.00000E+00
 -1       425 0.00000E+00 0.00000E+00 0.00000E+00
 -1       426 0.00000E+00 0.00000E+00 0.00000E+00
 -1       427 0.00000E+00 0.00000E+00 0.00000E+00
 -1       428 0.00000E+00 0.00000E+00 0.00000E+00
 -1       429 0.00000E+00 0.00000E+00 0.00000E+00
 -1       430 0.00000E+00 0.00000E+00 0.00000E+00
 -1       431 0.00000E+00 0.00000E+00 0.00000E+00
 -1       432 0.00000E+00 0.00000E+00 0.00000E+00
 -1       433 0.00000E+00 0.00000E+00 0.00000E+00
 -1       434 0.00000E+00 0.00000E+00 0.00000E+00
 -1       435 0.00000E+00 0.00000E+00 0.00000E+00
 -1       436 0.00000E+00 0.00000E+00 0.00000E+00
 -1       437 0.00000E+00 0.00000E+00 0.00000E+00
 -1       438 0.00000E+00 0.00000E+00 0.00000E+00
 -1       439 0.00000E+00 0.00000E+00 0.00000E+00
 -1       440 0.00000E+00 0.00000E+00 0.00000E+00
 -1       441 0.00000E+00 0.00000E+00 0.00000E+00
 -1       442 0.00000E+00 0.00000E+00 0.00000E+00
 -1       443 0.00000E+00 0.00000E+00 0.00000E+00
 -1       444 0.00000E+00 0.00000E+00 0.00000E+00
 -1       445 0.00000E+00 0.00000E+00 0.00000E+00
 -1       446 0.00000E+00 0.00000E+00 0.00000E+00
 -1       447 0.00000E+00 0.00000E+00 0.00000E+00
 -1       448 0.00000E+00 0.00000E+00 0.00000E+00
 -1       449 0.00000E+00 0.00000E+00 0.00000E+00
 -1       450 0.00000E+00 0.00000E+00 0.00000E+00
 -1       451 0.00000E+00 0.00000E+00 0.00000E+00
 -1       452 0.00000E+00 0.00000E+00 0.00000E+00
 -1       453 0.00000E+00 0.00000E+00 0.00000E+00
 -1       454 0.00000E+00 0.00000E+00 0.00000E+00
 -1       455 0.00000E+00 0.00000E+00 0.00000E+00
 -1       456 0.00000E+00 0.00000E+00 0.00000E+00
 -1       457 0.00000E+00 0.00000E+00 0.00000E+00
 -1       458 0.00000E+00 0.00000E+00 0.00000E+00
 -1       459 0.00000E+00 0.00000E+00 0.00000E+00
 -1       460 0.00000E+00 0.00000E+00 0.00000E+00
 -1       461 0.00000E+00 0.00000E+00 0.00000E+00
 -1       462 0.00000E+00 0.00000E+00 0.00000E+00
 -1       463 0.00000E+00 0.00000E+00 0.00000E+00
 -1       464 0.00000E+00 0.00000E+00 0.00000E+00
 -1       465 0.00000E+00 0.00000E+00 0.00000E+00
 -1       466 0.00000E+00 0.00000E+00 0.00000E+00
 -1       467 0.00000E+00 0.00000E+00 0.00000E+00
 -1       468 0.00000E+00 0.00000E+00 0.00000E+00
 -1       469 0.00000E+00 0.00000E+00 0.00000E+00
 -1       470 0.00000E+00 0.00000E+00 0.00000E+00
 -1       471 0.00000E+00 0.00000E+00 0.00000E+00
 -1       472 0.00000E+00 0.00000E+00 0.00000E+00
 -1       473 0.00000E+00 0.00000E+00 0.00000E+00
 -1       474 0.00000E+00 0.00000E+00 0.00000E+00
 -1       475 0.00000E+00 0.00000E+00 0.00000E+00
 -1       476 0.00000E+00 0.00000E+00 0.00000E+00
 -1       477 0.00000E+00 0.00000E+00 0.00000E+00
 -1       478 0.00000E+00 0.00000E+00 0.00000E+00
 -1       479 0.00000E+00 0.00000E+00 0.00000E+00
 -1       480 0.00000E+00 0.00000E+00 0.00000E+00
 -1       481 0.00000E+00 0.00000E+00 0.00000E+00
 -1       482 0.00000E+00 0.00000E+00 0.00000E+00
 -1       483 0.00000E+00 0.00000E+00 0.00000E+00
 -1       484 0.00000E+00 0.00000E+00 0.00000E+00
 -1       485 0.00000E+00 0.00000E+00 0.00000E+00
 -1       486 0.00000E+00 0.00000E+00 0.00000E+00
 -1       487 0.00000E+00 0.00000E+00 0.00000E+00
 -1       488 0.00000E+00 0.00000E+00 0.00000E+00
 -1       489 0.00000E+00 0.00000E+00 0.00000E+00
 -1       490 0.00000E+00 0.00000E+00 0.00000E+00
 -1       491 0.00000E+00 0.00000E+00 0.00000E+00
 -1       492 0.00000E+00 0.00000E+00 0.00000E+00
 -1       493 0.00000E+00 0.00000E+00 0.00000E+00
 -1       494 0.00000E+00 0.00000E+00 0.00000E+00
 -1       495 0.00000E+00 0.00000E+00 0.00000E+00
 -1       496 0.00000E+00 0.00000E+00 0.00000E+00
 -1       497 0.00000E+00 0.00000E+00 0.00000E+00
 -1       498 0.00000E+00 0.00000E+00 0.00000E+00
 -1       499 0.00000E+00 0.00000E+00 0.00000E+00
 -1       500 0.00000E+00 0.00000E+00 0.00000E+00
 -1       501 0.00000E+00 0.00000E+00 0.00000E+00
 -1       502 0.00000E+00 0.00000E+00 0.00000E+00
 -1       503 0.00000E+00 0.00000E+00 0.00000E+00
 -1       504 0.00000E+00 0.00000E+00 0.00000E+00
 -1       505 0.00000E+00 0.00000E+00 0.00000E+00
 -1       506 0.00000E+00 0.00000E+00 0.00000E+00
 -1       507 0.00000E+00 0.00000E+00 0.00000E+00
 -1       508 0.00000E+00 0.00000E+00 0.00000E+00
 -1       509 0.00000E+00 0.00000E+00 0.00000E+00
 -1       510 0.00000E+00 0.00000E+00 0.00000E+00
 -1       511 0.00000E+00 0.00000E+00 0.00000E+00
 -1       512 0.00000E+00 0.00000E+00 0.00000E+00
 -1       513 0.00000E+00 0.00000E+00 0.00000E+00
 -1       514 0.00000E+00 0.00000E+00 0.00000E+00
 -1       515 0.00000E+00 0.00000E+00 0.00000E+00
 -1       516 0.00000E+00 0.00000E+00 0.00000E+00
 -1       517 0.00000E+00 0.00000E+00 0.00000E+00
 -1       518 0.00000E+00 0.00000E+00 0.00000E+00
 -1       519 0.00000E+00 0.00000E+00 0.00000E+00
 -1       520 0.00000E+00 0.00000E+00 0.00000E+00
 -1       521 0.00000E+00 0.00000E+00 0.00000E+00
 -1       522 0.00000E+00 0.00000E+00 0.00000E+00
 -1       523 0.00000E+00 0.00000E+00 0.00000E+00
 -1       524 0.00000E+00 0.00000E+00 0.00000E+00
 -1       525 0.00000E+00 0.00000E+00 0.00000E+00
 -1       526 0.00000E+00 0.00000E+00 0.00000E+00
 -1       527 0.00000E+00 0.00000E+00 0.00000E+00
 -1       528 0.00000E+00 0.00000E+00 0.00000E+00
 -1       529 0.00000E+00 0.00000E+00 0.00000E+00
 -1       530 0.00000E+00 0.00000E+00 0.00000E+00
 -1       531 0.00000E+00 0.00000E+00 0.00000E+00
 -1       532 0.00000E+00 0.00000E+00 0.00000E+00
 -1       533 0.00000E+00 0.00000E+00 0.00000E+00
 -1       534 0.00000E+00 0.00000E+00 0.00000E+00
 -1       535 0.00000E+00 0.00000E+00 0.00000E+00
 -1       536 0.00000E+00 0.00000E+00 0.00000E+00
 -1       537 0.00000E+00 0.00000E+00 0.00000E+00
 -1       538 0.00000E+00 0.00000E+00 0.00000E+00
 -1       539 0.00000E+00 0.00000E+00 0.00000E+00
 -1       540 0.00000E+00 0.00000E+00 0.00000E+00
 -1       541 0.00000E+00 0.00000E+00 0.00000E+00
 -1       542 0.00000E+00 0.00000E+00 0.00000E+00
 -1       543 0.00000E+00 0.00000E+00 0.00000E+00
 -1       544 0.00000E+00 0.00000E+00 0.00000E+00
 -1       545-2.95013E-10 6.29308E-09-2.93629E-10
 -1       546-2.91026E-10-6.10082E-09-3.46687E-10
 -1       547-4.79626E-10-3.08912E-09-1.81794E-10
 -1       548-1.31885E-09-6.86346E-09-6.92186E-10
 -1       549 8.35705E-10-9.47007E-09-5.02347E-10
 -1       550 9.08847E-10-5.35899E-09 5.50850E-10
 -1       551-4.08060E-10 3.07522E-09-1.60030E-10
 -1       552-1.30062E-09 6.77229E-09-6.44029E-10
 -1       553 7.74476E-10 9.42399E-09-4.56494E-10
 -1       554 8.62714E-10 5.10270E-09 5.58658E-10
 -1       555 8.54713E-08 1.49785E-08 9.03429E-08
 -1       556 8.30205E-08-1.20472E-08 7.80951E-08
 -1       557 5.67797E-08-3.42844E-08 5.48160E-08
 -1       558 2.61841E-08-2.82216E-08 1.80833E-08
 -1       559 5.75112E-08 3.64198E-08 5.24379E-08
 -1       560 2.61734E-08 2.96195E-08 1.79228E-08
 -1       561 9.32263E-09 1.77205E-08 5.23693E-09
 -1       562 2.40885E-09 1.13899E-08 9.52188E-10
 -1       563 1.00575E-08-1.78350E-08 5.66314E-09
 -1       564 2.69494E-09-1.16770E-08 9.24339E-10
 -1       565 4.12378E-08 4.49103E-08-2.48842E-07
 -1       566 5.14748E-08-6.83158E-08-3.11654E-07
 -1       567 4.37712E-08 1.74894E-07-4.82330E-07
 -1       568-1.04337E-09 1.68258E-08 2.49594E-10
 -1       569-1.10727E-09-1.67056E-08 3.69945E-10
 -1       570 1.26907E-07 4.65135E-09-5.80634E-07
 -1       571-4.29746E-10 8.91702E-09 1.67321E-10
 -1       572-2.73835E-09 1.81601E-08 1.56857E-09
 -1       573-2.35016E-09 2.28753E-08 9.26132E-10
 -1       574 1.00209E-09 1.42611E-08-1.89060E-09
 -1       575-3.93921E-10-8.71228E-09 2.58274E-10
 -1       576-2.87247E-09-1.82317E-08 1.75433E-09
 -1       577-2.34473E-09-2.27411E-08 9.45301E-10
 -1       578 7.90114E-10-1.41087E-08-1.97603E-09
 -1       579 2.43293E-08 2.77149E-07-6.09291E-07
 -1       580-9.70849E-09 1.44526E-07-3.12254E-07
 -1       581 7.60941E-09 5.28698E-08-4.56875E-08
 -1       582 1.42706E-08 4.94383E-08-8.79578E-08
 -1       583 2.35135E-08 3.41646E-08-9.91571E-08
 -1       584 2.20225E-08 7.13971E-08-2.31711E-07
 -1       585 2.93721E-10 3.03331E-08-7.90380E-09
 -1       586 5.05334E-08 9.76288E-08-3.53108E-07
 -1       587 1.32113E-07 1.71182E-07-6.81337E-07
 -1       588 1.79694E-08-8.17172E-08-2.52554E-07
 -1       589 3.74715E-08-1.95305E-07-4.84596E-07
 -1       590 9.01935E-08-1.02956E-07-5.95201E-07
 -1       591 1.27956E-08-4.94965E-08-8.79728E-08
 -1       592 8.23068E-09-5.26033E-08-4.59566E-08
 -1       593 2.46875E-10-3.02836E-08-8.07746E-09
 -1       594 2.49245E-08-4.31774E-08-1.21306E-07
 -1       595 3.26657E-08-1.83807E-08-1.35860E-07
 -1       596 2.92055E-08 1.09976E-08-1.09131E-07
 -1       597 5.89121E-08-6.75423E-09-2.97553E-07
 -1       598 1.88722E-07 6.77975E-08-7.44468E-07
 -1       599 1.79855E-07-5.62738E-08-7.68186E-07
 -1       600 8.23503E-08-4.03792E-08-4.44317E-07
 -1       601 1.09116E-07 9.78229E-08-5.36496E-07
 -1       602 7.88036E-08 3.63160E-08-3.98200E-07
 -1       603-7.08265E-10-2.93304E-09-7.91907E-10
 -1       604-4.78736E-09 1.49847E-08 1.24990E-09
 -1       605-1.91332E-09 5.59677E-09 5.13218E-10
 -1       606-2.68863E-09-5.46160E-09-9.82556E-11
 -1       607-4.14538E-09 1.81914E-08-4.98774E-10
 -1       608 1.00826E-08 2.40255E-09-6.76180E-10
 -1       609-4.26587E-09 9.38566E-09 8.92186E-10
 -1       610-3.83762E-09 1.49688E-08-7.34120E-11
 -1       611-2.90201E-09-2.13019E-09 1.31384E-10
 -1       612-1.37126E-09-6.38505E-09-7.34294E-10
 -1       613-2.52239E-09 2.65803E-09 6.39834E-11
 -1       614-3.69590E-09 1.79260E-08 1.64797E-09
 -1       615 2.38675E-08 5.31328E-09 6.95546E-09
 -1       616-1.44535E-09 1.38521E-08-2.04074E-09
 -1       617-4.91812E-09 1.73150E-08-1.01937E-08
 -1       618-7.56586E-09 1.40580E-08-8.13808E-11
 -1       619 5.49089E-08 4.22428E-11 1.78568E-08
 -1       620 2.29839E-10 8.90879E-10-5.49067E-10
 -1       621-3.21265E-09-6.15381E-09 1.92923E-10
 -1       622-3.40725E-09-5.35967E-09 4.10383E-10
 -1       623-3.41975E-09-3.78750E-09 4.71021E-10
 -1       624-3.45655E-09-8.44861E-10 1.62698E-10
 -1       625-2.77743E-09-3.80572E-09 1.03217E-10
 -1       626-2.64131E-09-6.55722E-09-2.20441E-10
 -1       627 4.01129E-10-8.54742E-09-9.89095E-10
 -1       628-2.03512E-09-6.96390E-09-6.24859E-10
 -1       629-2.06073E-09-5.85043E-09-4.52607E-10
 -1       630-4.58287E-09 1.87791E-08-1.42311E-09
 -1       631-4.24963E-09 1.92918E-08-2.25615E-10
 -1       632-4.03180E-09 1.93098E-08 1.57741E-09
 -1       633-3.58127E-09 1.87842E-08-2.40326E-11
 -1       634-4.01686E-09 1.77578E-08 1.05979E-09
 -1       635-4.54676E-09 1.81469E-08-2.14705E-09
 -1       636-4.44767E-09 1.39446E-08-1.74246E-09
 -1       637-4.47716E-09 1.69502E-08-2.18898E-09
 -1       638-3.99167E-09 1.65915E-08-4.39935E-10
 -1       639 1.04368E-07-8.28183E-09 5.63666E-08
 -1       640 4.35293E-08-8.67332E-09 1.53944E-08
 -1       641 8.35693E-08-1.04312E-09 3.55310E-08
 -1       642-3.13552E-09 3.35780E-08-5.63451E-08
 -1       643-1.70516E-08 2.26876E-08-2.48352E-08
 -1       644-2.69399E-09 1.81640E-08-7.58860E-09
 -1       645-1.69798E-08 1.54004E-08-1.48813E-08
 -1       646 3.40265E-09 1.13484E-08-1.75929E-08
 -1       647 2.84446E-08 7.98970E-09 1.79414E-08
 -1       648-1.70622E-08 1.93639E-08-1.81796E-08
 -1       649-8.47477E-09 1.47588E-08-2.47280E-09
 -1       650-7.45348E-09 1.46307E-08-3.66486E-09
 -1       651-3.08303E-09 1.55978E-09-1.17629E-10
 -1       652-3.56074E-09 4.51507E-09-2.80274E-10
 -1       653-2.57786E-09 2.64969E-10-8.72873E-12
 -1       654-4.09664E-09 7.91804E-09-4.20698E-10
 -1       655-4.34850E-09 1.13051E-08-4.91685E-10
 -1       656-3.46816E-09 6.14869E-09 4.27514E-10
 -1       657-4.13128E-09 1.25268E-08 7.81793E-10
 -1       658 2.13964E-08-5.51338E-09 4.07343E-09
 -1       659 6.70771E-09-4.69085E-09-4.58780E-10
 -1       660 2.94376E-08 1.13682E-09 5.85311E-09
 -1       661 2.78046E-09-9.98294E-10-8.83020E-10
 -1       662 7.74724E-10-6.33587E-09-1.27085E-09
 -1       663-1.07084E-09-4.66459E-09-7.08049E-10
 -1       664-4.01932E-09 1.74969E-08-2.17655E-09
 -1       665 4.52463E-08 3.25260E-09 2.55654E-08
 -1       666 6.48386E-08-6.10606E-10 3.17267E-08
 -1       667 3.81202E-08 4.82290E-10 1.21694E-08
 -1       668 1.11263E-08 7.49678E-09 4.84696E-09
 -1       669-1.87932E-09-2.46516E-09-2.61864E-10
 -1       670-1.75875E-09-4.26393E-09-4.92147E-10
 -1       671 3.84883E-09 1.39191E-09-6.27894E-10
 -1       672-1.64084E-10-9.45223E-10-7.12018E-10
 -1       673-1.62845E-09-6.08267E-11-1.28380E-10
 -1       674-1.52939E-09 1.86482E-09 1.07084E-11
 -1       675-4.11718E-09 1.64896E-08 6.25094E-10
 -1       676-4.06175E-09 1.48459E-08 8.25519E-10
 -1       677-4.27235E-09 1.64063E-08 1.42816E-09
 -1       678-4.69828E-09 1.28119E-08 1.04588E-09
 -1       679-5.08615E-09 1.11203E-08 1.23574E-09
 -1       680-5.66213E-09 1.42525E-08 2.17459E-10
 -1       681-4.67302E-09 1.53155E-08-1.86612E-09
 -1       682 3.43545E-09 3.73821E-09 1.28688E-10
 -1       683 1.72125E-08 3.95773E-09 3.28776E-09
 -1       684 5.58462E-09 5.70168E-09 1.85015E-09
 -1       685-4.37695E-10 3.24871E-09-2.66156E-10
 -1       686-4.11233E-09 7.80370E-09 9.48418E-10
 -1       687-2.08258E-09 3.99802E-09 4.70458E-10
 -1       688-5.09745E-09 9.40702E-09 6.64441E-10
 -1       689-1.36897E-09 9.22525E-09 4.33473E-10
 -1       690-7.85868E-10 2.98220E-09-8.27037E-10
 -1       691-4.68906E-09-1.45711E-08 1.13396E-09
 -1       692-1.27477E-09-6.09607E-09 8.50585E-10
 -1       693-2.51817E-09 5.55885E-09-3.17146E-12
 -1       694-4.23976E-09-1.79634E-08-4.78325E-10
 -1       695 1.25018E-08-7.55732E-11 7.07639E-10
 -1       696-4.33976E-09-1.01678E-08 6.83470E-10
 -1       697-3.92079E-09-1.47746E-08-2.92806E-10
 -1       698-2.84018E-09 2.18765E-09 6.10537E-11
 -1       699-1.28985E-09 6.52291E-09-7.61294E-10
 -1       700-2.58415E-09-2.47884E-09 2.71952E-11
 -1       701-3.77775E-09-1.77189E-08 1.57923E-09
 -1       702 2.14712E-08-4.02662E-09 6.59926E-09
 -1       703-2.32787E-09-1.04483E-08-1.26391E-09
 -1       704-5.14318E-09-1.65273E-08-9.42610E-09
 -1       705-8.46984E-09-1.66068E-08-7.40745E-10
 -1       706 5.41705E-08-1.98842E-09 1.61982E-08
 -1       707-1.15346E-10-1.91793E-09-3.53334E-10
 -1       708-3.02495E-09 6.16309E-09 2.63533E-10
 -1       709-2.49167E-09 6.50084E-09-1.30383E-10
 -1       710-1.92550E-09 6.93153E-09-5.88742E-10
 -1       711 3.42764E-10 8.47586E-09-1.00853E-09
 -1       712-1.95517E-09 5.94871E-09-4.17919E-10
 -1       713-3.25039E-09 5.44746E-09 4.74400E-10
 -1       714-3.39077E-09 9.55772E-10 1.67008E-10
 -1       715-3.31208E-09 3.88943E-09 4.94930E-10
 -1       716-2.66063E-09 3.91507E-09 1.08145E-10
 -1       717-4.55712E-09-1.87701E-08-1.32615E-09
 -1       718-4.66244E-09-1.81553E-08-1.95230E-09
 -1       719-4.52799E-09-1.68808E-08-2.11399E-09
 -1       720-4.49884E-09-1.39437E-08-1.87019E-09
 -1       721-4.08311E-09-1.64157E-08-4.81780E-10
 -1       722-4.44589E-09-1.89836E-08-7.66705E-11
 -1       723-3.57401E-09-1.85148E-08-4.77733E-11
 -1       724-4.13354E-09-1.90077E-08 1.69691E-09
 -1       725-4.10542E-09-1.75314E-08 1.09002E-09
 -1       726 4.26475E-08 8.39467E-09 1.42497E-08
 -1       727 1.02217E-07 8.67958E-09 5.60627E-08
 -1       728 8.39550E-08 5.29622E-10 3.73010E-08
 -1       729-1.66345E-08-2.03156E-08-2.31824E-08
 -1       730-3.15414E-09-3.34593E-08-5.69027E-08
 -1       731-2.58777E-09-1.76909E-08-7.47318E-09
 -1       732 7.71685E-10-1.13352E-08-1.71665E-08
 -1       733-2.08769E-08-1.54585E-08-1.63346E-08
 -1       734-8.65815E-09-1.49075E-08-1.53910E-09
 -1       735-1.58361E-08-2.27664E-08-1.26403E-08
 -1       736-7.52927E-09-1.59366E-08-3.87027E-09
 -1       737 2.64079E-08-6.98888E-09 1.62966E-08
 -1       738-3.55453E-09-4.39936E-09-3.91757E-10
 -1       739-3.04423E-09-1.41675E-09-1.45317E-10
 -1       740-2.57118E-09-1.50587E-10-6.78655E-11
 -1       741-4.39059E-09-1.16160E-08-7.06637E-10
 -1       742-4.13867E-09-8.19492E-09-6.21949E-10
 -1       743-3.52993E-09-6.16956E-09 2.95663E-10
 -1       744-4.18084E-09-1.28352E-08 5.40695E-10
 -1       745 6.89084E-09 5.18998E-09-1.87568E-10
 -1       746 2.04120E-08 5.09056E-09 3.63140E-09
 -1       747 6.74574E-10 6.32425E-09-1.28973E-09
 -1       748 3.04271E-09 1.97367E-09-4.53945E-10
 -1       749-1.05999E-09 4.84331E-09-7.27727E-10
 -1       750 2.80542E-08-1.71089E-09 5.20830E-09
 -1       751-4.06594E-09-1.70555E-08-2.03336E-09
 -1       752 6.33881E-08 7.19834E-10 3.32214E-08
 -1       753 4.47483E-08-1.89279E-09 2.58380E-08
 -1       754 3.67785E-08-7.78773E-10 1.11976E-08
 -1       755 1.03722E-08-6.44898E-09 5.49224E-09
 -1       756-1.72512E-09 4.37110E-09-4.12499E-10
 -1       757-1.88243E-09 2.51291E-09-3.63040E-10
 -1       758-4.25651E-10 7.43769E-10-6.12529E-10
 -1       759 4.48139E-09-1.15551E-09 5.48116E-11
 -1       760-1.69876E-09 6.44437E-11-2.12847E-10
 -1       761-1.55786E-09-2.14531E-09-1.44911E-10
 -1       762-4.02524E-09-1.45863E-08 7.92720E-10
 -1       763-4.15945E-09-1.62266E-08 6.48326E-10
 -1       764-4.25377E-09-1.60958E-08 1.32831E-09
 -1       765-4.58469E-09-1.30913E-08 9.38200E-10
 -1       766-5.64211E-09-1.48795E-08 1.62090E-10
 -1       767-5.45886E-09-1.25560E-08 1.16643E-09
 -1       768-4.55347E-09-1.49553E-08-1.87966E-09
 -1       769 6.22882E-09-5.64128E-09 2.56177E-09
 -1       770 1.75651E-08-2.35916E-09 3.41838E-09
 -1       771 4.20443E-09-3.13542E-09 9.03533E-10
 -1       772-4.19412E-10-3.67457E-09 3.04124E-10
 -1       773-1.80356E-09-4.08386E-09 4.80408E-10
 -1       774-4.01093E-09-8.23036E-09 8.42032E-10
 -1       775-4.94698E-09-1.00619E-08 9.92186E-10
 -1       776-1.58520E-09-8.46527E-09 1.01980E-09
 -1       777 5.51467E-06-7.43189E-08-4.58306E-06
 -1       778 4.56235E-06-1.31180E-07-2.19311E-06
 -1       779 4.75064E-06-1.63307E-07-2.45025E-06
 -1       780 3.53832E-06-1.22167E-07-9.65093E-07
 -1       781 5.73929E-07-3.41403E-08 1.66908E-07
 -1       782 1.36722E-06-6.92372E-08 1.46355E-07
 -1       783 2.27630E-06-9.01429E-08-1.14713E-07
 -1       784 4.57483E-06 1.76683E-07-2.18174E-06
 -1       785 4.76835E-06 2.09882E-07-2.43273E-06
 -1       786 3.55561E-06 1.57903E-07-9.62281E-07
 -1       787 5.51933E-06 1.37972E-07-4.55183E-06
 -1       788 5.93169E-07 3.84916E-08 1.77717E-07
 -1       789 1.38054E-06 7.66061E-08 1.55232E-07
 -1       790 2.29460E-06 1.08682E-07-1.12373E-07
 -1       791 3.19151E-06 5.92880E-08-1.97233E-05
 -1       792 3.20424E-06 4.63824E-08-1.96912E-05
 -1       793 3.17040E-06 4.90258E-08-8.58358E-06
 -1       794 3.20345E-06 2.93836E-08-1.43309E-05
 -1       795 3.20509E-06 1.44090E-08-8.55703E-06
 -1       796 3.17030E-06 5.59318E-08-1.43975E-05
 -1       797 2.30182E-07 1.19257E-07-4.00056E-06
 -1       798 2.59686E-07-8.85493E-08-3.97745E-06
 -1       799 6.13073E-06-6.16333E-08-4.20119E-06
 -1       800 6.24516E-06-6.53642E-08-4.82413E-06
 -1       801 6.26218E-06-6.44874E-08-5.01613E-06
 -1       802 5.38128E-06-5.06778E-08-3.56196E-06
 -1       803 5.36571E-06 1.06439E-07-3.55526E-06
 -1       804 6.25450E-06 1.30146E-07-4.78563E-06
 -1       805 6.13021E-06 1.21765E-07-4.17666E-06
 -1       806 6.27393E-06 1.30643E-07-4.97543E-06
 -1       807 5.23582E-06 6.29307E-08-2.03271E-05
 -1       808 5.22033E-06 6.44759E-08-1.93002E-05
 -1       809 5.24263E-06 6.16927E-08-2.03119E-05
 -1       810 5.23697E-06 5.64881E-08-1.92628E-05
 -1       811 3.19598E-06 5.73105E-08-2.03152E-05
 -1       812 3.20233E-06 5.09473E-08-2.02986E-05
 -1       813 1.15436E-06 5.06528E-08-2.03076E-05
 -1       814 1.16223E-06 4.01357E-08-2.02902E-05
 -1       815 1.15623E-06 5.44573E-08-1.92803E-05
 -1       816 1.17436E-06 3.15154E-08-1.92398E-05
 -1       817 1.25221E-07-1.00095E-07-4.68680E-06
 -1       818 9.85184E-08-1.00598E-07-4.88397E-06
 -1       819 5.00932E-07-1.00804E-07-4.50496E-06
 -1       820-1.24709E-07-9.10408E-08-4.13283E-06
 -1       821 4.43301E-07-7.60575E-08-3.42401E-06
 -1       822 9.46066E-08 1.35968E-07-4.72215E-06
 -1       823 6.87172E-08 1.37442E-07-4.92039E-06
 -1       824 4.67517E-07 1.31139E-07-4.53522E-06
 -1       825-1.51862E-07 1.28228E-07-4.16073E-06
 -1       826 4.20810E-07 1.02406E-07-3.44037E-06
 -1       827 4.44470E-06 6.56605E-09-7.29818E-06
 -1       828 1.88288E-06 8.20931E-08-7.27351E-06
 -1       829 4.50211E-08 1.37919E-07-5.12857E-06
 -1       830-7.17841E-08 1.35484E-07-7.30369E-06
 -1       831 1.21490E-06 9.79269E-08-8.60083E-06
 -1       832 6.39341E-06-5.08536E-08-7.34725E-06
 -1       833 6.27930E-06-6.34679E-08-5.21833E-06
 -1       834 5.11942E-06-5.73935E-09-8.61453E-06
 -1       835 6.14835E-06-4.74863E-08-3.72112E-06
 -1       836 5.97404E-06 7.56350E-09-3.12218E-06
 -1       837 5.90790E-06 3.17647E-08-3.09221E-06
 -1       838 6.13601E-06 1.08076E-07-3.70691E-06
 -1       839 5.95031E-06 6.30828E-08-3.13090E-06
 -1       840 1.91210E-06-3.60589E-08-7.23307E-06
 -1       841 4.47699E-06 6.26379E-08-7.25650E-06
 -1       842 6.29353E-06 1.30825E-07-5.17611E-06
 -1       843 6.41525E-06 1.36907E-07-7.28804E-06
 -1       844 5.15323E-06 8.38535E-08-8.56791E-06
 -1       845-3.95790E-08-1.03181E-07-7.24505E-06
 -1       846 7.38917E-08-1.00589E-07-5.09151E-06
 -1       847 1.24556E-06-4.92335E-08-8.55403E-06
 -1       848 5.19206E-06 5.12105E-08-1.68387E-05
 -1       849 5.16726E-06 3.31300E-08-1.42969E-05
 -1       850 3.18120E-06 6.02112E-08-1.75637E-05
 -1       851 5.14350E-06 9.53680E-09-1.13578E-05
 -1       852 3.16835E-06 5.19268E-08-1.14690E-05
 -1       853 5.17952E-06 8.07621E-08-1.13080E-05
 -1       854 5.21927E-06 5.97404E-08-1.67791E-05
 -1       855 5.19943E-06 6.88579E-08-1.42269E-05
 -1       856 3.20424E-06 2.23585E-08-1.14213E-05
 -1       857 3.20498E-06 3.74929E-08-1.75092E-05
 -1       858 1.16388E-06 6.66076E-08-1.68191E-05
 -1       859 1.17505E-06 7.70272E-08-1.42849E-05
 -1       860 1.19296E-06 8.91702E-08-1.13551E-05
 -1       861 3.40803E-07 4.72150E-08-2.89117E-06
 -1       862 3.44650E-08 1.05414E-07-3.56518E-06
 -1       863 6.16596E-08-7.45426E-08-3.54131E-06
 -1       864 3.54617E-07-2.93775E-08-2.88547E-06
 -1       865 1.22607E-06-3.13028E-08-1.13059E-05
 -1       866 1.19099E-06 1.08442E-08-1.67596E-05
 -1       867 1.20750E-06-7.99874E-09-1.42168E-05
 -1       868-7.70098E-07 1.97732E-08-1.14519E-05
 -1       869-8.47619E-07-2.22878E-09-1.52525E-05
 -1       870-7.54767E-07 9.50603E-08-1.01217E-05
 -1       871-7.83538E-07-4.99139E-08-1.14026E-05
 -1       872-5.15327E-07 5.63892E-08-7.05328E-06
 -1       873-8.63663E-07 5.57019E-08-1.50581E-05
 -1       874-5.82412E-07-5.67288E-08-7.68603E-06
 -1       875-8.80873E-07 4.33279E-08-1.77800E-05
 -1       876-8.80218E-07 6.67513E-08-1.69069E-05
 -1       877-8.61692E-07-6.36524E-09-1.69827E-05
 -1       878-8.74317E-07 1.97399E-08-1.78788E-05
 -1       879-8.54187E-07 2.67557E-08-1.51632E-05
 -1       880-8.61330E-07 8.72188E-08-1.46262E-05
 -1       881-8.25553E-07 1.05357E-07-1.21481E-05
 -1       882-7.59926E-07 1.25527E-07-9.38172E-06
 -1       883-8.15972E-07 7.26389E-08-1.25827E-05
 -1       884-6.35635E-07 1.29749E-07-7.20308E-06
 -1       885-4.61585E-07 1.18556E-07-5.70914E-06
 -1       886-2.32045E-07 3.91635E-08-4.94131E-06
 -1       887-6.66185E-07 8.19856E-08-8.57132E-06
 -1       888-2.86641E-07-3.40590E-08-5.22392E-06
 -1       889-4.77486E-07-1.06727E-07-5.99675E-06
 -1       890-5.44033E-07-5.88372E-10-7.37269E-06
 -1       891-6.80009E-07-9.46349E-08-8.12495E-06
 -1       892-7.57250E-07-8.42992E-08-9.98202E-06
 -1       893-8.12860E-07-5.55137E-08-1.27559E-05
 -1       894-6.98591E-07-5.26496E-08-9.52867E-06
 -1       895-8.40162E-07-3.28468E-08-1.46897E-05
 -1       896-8.19899E-07-2.42015E-08-1.33259E-05
 -1       897-8.15287E-07 6.32088E-09-1.33523E-05
 -1       898-7.74909E-07-1.59730E-08-1.14352E-05
 -1       899-8.22922E-07 3.91258E-08-1.32539E-05
 -1       900-6.78594E-07 3.35221E-08-9.22624E-06
 -1       901-7.63174E-07 5.67941E-08-1.07914E-05
 -1       902-6.87431E-07-1.20663E-08-9.55422E-06
 -1       903 7.14570E-06 5.35600E-08-1.15001E-05
 -1       904 7.24610E-06 8.29472E-08-1.52982E-05
 -1       905 7.10327E-06-1.34099E-08-1.01649E-05
 -1       906 7.16160E-06 1.12247E-07-1.14370E-05
 -1       907 6.89405E-06-1.30999E-09-7.09899E-06
 -1       908 7.22632E-06 3.96370E-08-1.51010E-05
 -1       909 6.96707E-06 1.06159E-07-7.72659E-06
 -1       910 7.24922E-06 3.92528E-08-1.69499E-05
 -1       911 7.26251E-06 5.84923E-08-1.78227E-05
 -1       912 7.26759E-06 8.89346E-08-1.70269E-05
 -1       913 7.27063E-06 7.41837E-08-1.79221E-05
 -1       914 7.23627E-06 6.13445E-08-1.52087E-05
 -1       915 7.21984E-06 1.38143E-08-1.46657E-05
 -1       916 7.09384E-06-4.39178E-08-9.41332E-06
 -1       917 7.17278E-06-1.42354E-08-1.21735E-05
 -1       918 7.17218E-06 1.61441E-08-1.26239E-05
 -1       919 6.97599E-06-5.19683E-08-7.26733E-06
 -1       920 6.66745E-06 6.39790E-09-5.07867E-06
 -1       921 6.83875E-06-5.55613E-08-5.78838E-06
 -1       922 7.02163E-06-9.37684E-09-8.62308E-06
 -1       923 6.86372E-06 1.47889E-07-6.07327E-06
 -1       924 6.72033E-06 8.43586E-08-5.35282E-06
 -1       925 6.92112E-06 5.76124E-08-7.41749E-06
 -1       926 7.05450E-06 1.35398E-07-8.17535E-06
 -1       927 7.20965E-06 1.21613E-07-1.27799E-05
 -1       928 7.14241E-06 1.37047E-07-1.00096E-05
 -1       929 7.07636E-06 1.07894E-07-9.57224E-06
 -1       930 7.24248E-06 1.05434E-07-1.47277E-05
 -1       931 7.20792E-06 9.54428E-08-1.33653E-05
 -1       932 7.20471E-06 7.05839E-08-1.33934E-05
 -1       933 7.15323E-06 8.40379E-08-1.14775E-05
 -1       934 7.19248E-06 4.48368E-08-1.32967E-05
 -1       935 7.04799E-06 3.66191E-08-9.28034E-06
 -1       936 7.11854E-06 2.06499E-08-1.08407E-05
 -1       937 7.06598E-06 7.46332E-08-9.60519E-06
 -1       938 5.61605E-06-6.60555E-08-5.44368E-06
 -1       939 7.09367E-07 1.50603E-07-5.36220E-06
 -1       940 5.63294E-06 1.36938E-07-5.39447E-06
 -1       941 2.95281E-07-7.81127E-09 1.89475E-07
 -1       942 3.98043E-07-5.63085E-09 2.11663E-07
 -1       943 4.36883E-06-6.22289E-08-1.58447E-06
 -1       944 4.36477E-06 8.84353E-08-1.58771E-06
 -1       945 3.45380E-06 7.11555E-09-5.92642E-07
 -1       946 5.07228E-07-6.41308E-09 2.48401E-07
 -1       947 6.45875E-07-4.40153E-09 2.91070E-07
 -1       948 8.35583E-07-2.52314E-09 3.42428E-07
 -1       949 1.09418E-06-1.24357E-09 3.68666E-07
 -1       950 1.44727E-06 4.64547E-09 3.58243E-07
 -1       951 1.93905E-06 6.29934E-09 2.51482E-07
 -1       952 2.60056E-06 5.01949E-09-1.51492E-08
 -1       953 3.30737E-07-2.83763E-07-1.50388E-06
 -1       954 3.14462E-07 2.97903E-07-1.49962E-06
 -1       955 1.60789E-07 3.58605E-07-1.07337E-06
 -1       956 2.64959E-07 2.19526E-07-1.18301E-06
 -1       957 4.22805E-07 3.55429E-07-1.76609E-06
 -1       958 2.65769E-07-2.13033E-07-1.20571E-06
 -1       959 1.75602E-07-3.44153E-07-1.06993E-06
 -1       960 4.44779E-07-3.37849E-07-1.75702E-06
 -1       961 7.85046E-07-2.71402E-07-3.40027E-06
 -1       962 7.04808E-07-2.08113E-07-2.59981E-06
 -1       963 7.60257E-07 2.94125E-07-3.42868E-06
 -1       964 6.87333E-07 2.32130E-07-2.61012E-06
 -1       965 5.06681E-07 1.80377E-08-1.73883E-06
 -1       966 4.55816E-07-1.14763E-07-1.72546E-06
 -1       967 5.63790E-07-1.74489E-07-2.16747E-06
 -1       968 4.91845E-07 1.40309E-07-1.70456E-06
 -1       969 5.49957E-07 1.98176E-07-2.16901E-06
 -1       970 7.40202E-07-1.17065E-07-5.31900E-06
 -1       971 3.18440E-06 1.18254E-08-5.54769E-06
 -1       972 1.82753E-06-6.51525E-08-5.16739E-06
 -1       973 2.59758E-06-7.27825E-09-2.44967E-06
 -1       974 4.46094E-06 7.83054E-08-5.46501E-06
 -1       975 4.13144E-06 1.37617E-07-3.41149E-06
 -1       976 2.48975E-06-3.94839E-08-4.11706E-06
 -1       977 3.78943E-06 6.31726E-08-4.61025E-06
 -1       978 4.61062E-06 1.10249E-07-4.83126E-06
 -1       979-1.38083E-07-1.13177E-07-2.65153E-07
 -1       980 4.64278E-07-1.65235E-07-5.38104E-07
 -1       981 1.51381E-06-8.13336E-08-1.28216E-06
 -1       982 5.08504E-06 1.13887E-07-5.38765E-06
 -1       983 1.55242E-06-1.78014E-07-2.83077E-06
 -1       984-1.06793E-07-2.38287E-07-4.90573E-07
 -1       985-8.06366E-08-1.35956E-07-2.71026E-07
 -1       986-1.15854E-07-4.21766E-08-1.38973E-07
 -1       987-4.26223E-08-1.46700E-07-3.48304E-07
 -1       988 1.99760E-07-5.25387E-08-1.01135E-07
 -1       989 1.12270E-07-3.01594E-07-7.79039E-07
 -1       990 4.92001E-07-2.89506E-07-1.11920E-06
 -1       991-1.08371E-07-5.21259E-08-1.34059E-07
 -1       992 9.14083E-07 3.88952E-09-1.12235E-07
 -1       993 5.34084E-06 1.32867E-07-5.27306E-06
 -1       994 5.38787E-06 1.14890E-07-5.74619E-06
 -1       995 4.02963E-06 1.98881E-07-2.20024E-06
 -1       996 4.84224E-06 1.52667E-07-4.25985E-06
 -1       997 4.36935E-06 1.24851E-07-4.10178E-06
 -1       998 5.09674E-06 1.33023E-07-4.99520E-06
 -1       999 4.84574E-06 1.12910E-07-5.10786E-06
 -1      1000 4.42843E-06 6.60930E-08-5.81949E-06
 -1      1001 1.94269E-06-4.06766E-08-5.78739E-06
 -1      1002 5.07189E-06 9.84943E-08-5.78441E-06
 -1      1003 3.82322E-06 4.45909E-08-5.50307E-06
 -1      1004 4.77212E-06 9.60234E-08-5.42613E-06
 -1      1005 1.26033E-06-8.06843E-08-5.60970E-06
 -1      1006 1.30896E-06-1.01696E-07-5.11267E-06
 -1      1007 2.49970E-06-2.16887E-08-5.35372E-06
 -1      1008 1.21890E-06-1.94610E-07-3.87969E-06
 -1      1009 9.37974E-07-3.00163E-07-2.44041E-06
 -1      1010 2.17421E-06-5.90482E-08-4.62684E-06
 -1      1011 1.67873E-06-1.03332E-07-4.55668E-06
 -1      1012 1.98623E-06-1.04909E-07-3.45948E-06
 -1      1013 1.46632E-06 3.01760E-08-3.59200E-07
 -1      1014 2.63286E-06 1.01599E-07-1.22656E-06
 -1      1015 9.01100E-07-1.46239E-07-8.46135E-07
 -1      1016 3.25421E-06 1.34321E-07-1.78172E-06
 -1      1017 3.34014E-06 7.61961E-08-2.91680E-06
 -1      1018 2.01099E-06-5.06866E-08-1.81777E-06
 -1      1019 9.76809E-07-2.54568E-07-1.64841E-06
 -1      1020 1.55255E-06-1.49371E-07-1.97287E-06
 -1      1021 2.82677E-06-1.00228E-08-4.82213E-06
 -1      1022 4.12000E-06 7.26969E-08-5.03382E-06
 -1      1023 3.49536E-06 3.41654E-08-5.06972E-06
 -1      1024 3.12632E-06 1.61461E-08-4.36332E-06
 -1      1025 2.55952E-06-3.14749E-08-3.23327E-06
 -1      1026 3.31351E-06 4.51767E-08-3.75153E-06
 -1      1027 2.07458E-06-9.02991E-08-2.63067E-06
 -1      1028 4.53685E-06 9.37413E-08-5.14565E-06
 -1      1029 4.19687E-06 8.75600E-08-4.72051E-06
 -1      1030 3.96816E-06 9.72573E-08-3.99404E-06
 -1      1031 3.15322E-06 4.17149E-08-5.58726E-06
 -1      1032 4.43641E-06-1.05497E-08-5.51620E-06
 -1      1033 1.80211E-06 1.07277E-07-5.21070E-06
 -1      1034 2.56793E-06 4.28446E-08-2.47604E-06
 -1      1035 4.09962E-06-8.50323E-08-3.44343E-06
 -1      1036 2.45614E-06 8.23040E-08-4.16655E-06
 -1      1037 3.75403E-06-9.04194E-09-4.65602E-06
 -1      1038 4.58043E-06-5.00614E-08-4.87864E-06
 -1      1039-1.37129E-07 1.23808E-07-2.76284E-07
 -1      1040 4.37597E-07 1.74222E-07-5.50716E-07
 -1      1041 1.48630E-06 1.08155E-07-1.30357E-06
 -1      1042 5.06021E-06-4.62650E-08-5.43848E-06
 -1      1043 1.52879E-06 2.06731E-07-2.86082E-06
 -1      1044-1.16498E-07 2.43232E-07-4.90519E-07
 -1      1045-7.50798E-08 1.28934E-07-2.70539E-07
 -1      1046-1.07773E-07 5.72142E-08-1.41026E-07
 -1      1047-1.20425E-07 5.07939E-08-1.49956E-07
 -1      1048-5.76403E-08 1.51890E-07-3.54222E-07
 -1      1049 1.76958E-07 5.82965E-08-1.12345E-07
 -1      1050 8.99016E-08 3.12589E-07-7.87563E-07
 -1      1051 4.65727E-07 3.06389E-07-1.13229E-06
 -1      1052 5.36715E-06-4.39294E-08-5.79653E-06
 -1      1053 5.31961E-06-6.46028E-08-5.32348E-06
 -1      1054 4.00241E-06-1.55572E-07-2.22221E-06
 -1      1055 4.81318E-06-9.25610E-08-4.29864E-06
 -1      1056 4.33795E-06-6.75021E-08-4.13983E-06
 -1      1057 5.07256E-06-6.74961E-08-5.04366E-06
 -1      1058 4.81776E-06-4.89794E-08-5.15736E-06
 -1      1059 8.85457E-07 7.72975E-09-1.24231E-07
 -1      1060 4.40006E-06-3.69848E-09-5.86826E-06
 -1      1061 1.91467E-06 8.58250E-08-5.82873E-06
 -1      1062 1.28154E-06 1.37109E-07-5.15777E-06
 -1      1063 1.23387E-06 1.20397E-07-5.65391E-06
 -1      1064 2.47398E-06 7.21573E-08-5.39444E-06
 -1      1065 3.79327E-06 1.50469E-08-5.55024E-06
 -1      1066 5.04992E-06-2.81088E-08-5.83583E-06
 -1      1067 4.74579E-06-2.87596E-08-5.47724E-06
 -1      1068 9.12132E-07 3.24517E-07-2.46523E-06
 -1      1069 1.19469E-06 2.22045E-07-3.91533E-06
 -1      1070 2.14814E-06 9.65326E-08-4.67330E-06
 -1      1071 1.65468E-06 1.33180E-07-4.60088E-06
 -1      1072 1.95802E-06 1.38330E-07-3.49821E-06
 -1      1073 2.60369E-06-6.82569E-08-1.24720E-06
 -1      1074 1.43801E-06-1.01094E-08-3.71964E-07
 -1      1075 8.73433E-07 1.63299E-07-8.62136E-07
 -1      1076 3.30674E-06-3.12268E-08-2.94646E-06
 -1      1077 3.22750E-06-9.69525E-08-1.80345E-06
 -1      1078 1.98278E-06 8.20852E-08-1.84139E-06
 -1      1079 9.50808E-07 2.78312E-07-1.66789E-06
 -1      1080 1.52697E-06 1.79270E-07-1.99794E-06
 -1      1081 4.08789E-06-1.54985E-08-5.08233E-06
 -1      1082 3.46156E-06 1.92075E-08-5.11469E-06
 -1      1083 2.79570E-06 5.91339E-08-4.86943E-06
 -1      1084 3.09072E-06 3.32319E-08-4.41056E-06
 -1      1085 4.16279E-06-3.12589E-08-4.76709E-06
 -1      1086 4.50891E-06-3.07793E-08-5.19554E-06
 -1      1087 3.27823E-06 5.17317E-09-3.79159E-06
 -1      1088 2.52664E-06 7.00816E-08-3.27211E-06
 -1      1089 2.04963E-06 1.22753E-07-2.65951E-06
 -1      1090 3.93496E-06-4.12618E-08-4.03162E-06
 -1      1091 5.11322E-07-3.06191E-08 2.49894E-07
 -1      1092 2.20456E-06-8.89188E-08-1.05626E-07
 -1      1093 3.76244E-07-3.14849E-08 2.20539E-07
 -1      1094 1.01054E-06-4.55776E-08 2.82901E-07
 -1      1095 1.81173E-07-3.15227E-09 6.04692E-08
 -1      1096 2.83702E-07-2.51510E-08 1.64778E-07
 -1      1097 2.34364E-07 6.26627E-09 1.29204E-08
 -1      1098 6.56878E-08 7.79772E-09-3.09440E-08
 -1      1099 1.24622E-07-6.51098E-09 7.62823E-08
 -1      1100 4.24867E-06-1.32704E-07-1.59472E-06
 -1      1101 3.23643E-06-1.19809E-07-6.69156E-07
 -1      1102 1.13054E-06-3.81936E-08 1.55487E-07
 -1      1103 6.52400E-07-1.39654E-08 1.27735E-07
 -1      1104 7.16717E-07-3.65218E-08 2.78560E-07
 -1      1105 4.39076E-07-8.02187E-09 1.46293E-07
 -1      1106 3.43104E-07-1.72311E-08 1.63652E-07
 -1      1107 2.23623E-07-2.11074E-08 1.48238E-07
 -1      1108 2.48554E-07-2.64027E-08 1.53935E-07
 -1      1109 3.97924E-07-3.26635E-08 2.18401E-07
 -1      1110 4.40518E-07-3.22796E-08 2.45615E-07
 -1      1111 2.56943E-07-2.02002E-08 1.54160E-07
 -1      1112 2.57006E-06-7.61475E-08-3.95318E-07
 -1      1113 1.71070E-06-4.84744E-08-7.01385E-08
 -1      1114 2.09780E-06-1.10341E-07 1.51196E-07
 -1      1115 1.69511E-06-7.86551E-08 1.62642E-07
 -1      1116 1.45494E-06-8.17132E-08 3.04954E-07
 -1      1117 2.78526E-06-1.30597E-07-2.92853E-07
 -1      1118 5.25860E-07-3.88736E-08 2.74061E-07
 -1      1119 8.28517E-07-5.24095E-08 3.49576E-07
 -1      1120 6.36310E-07-4.17844E-08 3.15520E-07
 -1      1121 1.10399E-06-6.40257E-08 3.70592E-07
 -1      1122 5.15397E-07 2.73507E-08 2.54879E-07
 -1      1123 2.21444E-06 1.02803E-07-1.03182E-07
 -1      1124 3.77421E-07 2.60805E-08 2.20471E-07
 -1      1125 1.02221E-06 4.98479E-08 2.90670E-07
 -1      1126 1.83535E-07 5.20943E-10 6.20862E-08
 -1      1127 2.83675E-07 1.79430E-08 1.54983E-07
 -1      1128 2.39263E-07-8.43595E-09 2.20387E-08
 -1      1129 6.70879E-08-8.77007E-09-2.86531E-08
 -1      1130 1.28504E-07 2.32161E-09 7.77717E-08
 -1      1131 4.25345E-06 1.60396E-07-1.60284E-06
 -1      1132 3.24663E-06 1.34717E-07-6.89943E-07
 -1      1133 1.13048E-06 4.62814E-08 1.62448E-07
 -1      1134 6.46945E-07 1.52279E-08 1.24304E-07
 -1      1135 7.28279E-07 3.78051E-08 2.84909E-07
 -1      1136 4.41952E-07 1.06127E-08 1.48703E-07
 -1      1137 3.40804E-07 1.41038E-08 1.60975E-07
 -1      1138 2.21401E-07 1.62888E-08 1.43509E-07
 -1      1139 2.52227E-07 2.09050E-08 1.52203E-07
 -1      1140 3.98607E-07 2.21715E-08 2.14664E-07
 -1      1141 2.58191E-07 1.51476E-08 1.54671E-07
 -1      1142 4.41315E-07 2.69224E-08 2.45872E-07
 -1      1143 2.57331E-06 9.53001E-08-4.07403E-07
 -1      1144 1.71039E-06 6.29082E-08-6.67152E-08
 -1      1145 2.09698E-06 1.24604E-07 1.52422E-07
 -1      1146 1.69478E-06 8.61615E-08 1.74860E-07
 -1      1147 1.46010E-06 8.87611E-08 3.13145E-07
 -1      1148 2.79680E-06 1.43489E-07-2.96412E-07
 -1      1149 5.32596E-07 3.22701E-08 2.74438E-07
 -1      1150 6.32887E-07 3.70962E-08 3.14531E-07
 -1      1151 8.28414E-07 4.90247E-08 3.49445E-07
 -1      1152 1.10446E-06 6.40019E-08 3.71205E-07
 -1      1153-1.86688E-08-1.75283E-09-8.33505E-08
 -1      1154-8.23145E-08-3.68864E-09-1.00080E-07
 -1      1155-1.25769E-08-4.70742E-09-9.74074E-08
 -1      1156-1.79656E-08 1.84788E-08-1.47519E-08
 -1      1157 1.09006E-07-1.66907E-08-6.05885E-08
 -1      1158-2.07781E-08 6.96156E-09-8.12462E-08
 -1      1159-1.44935E-08 8.12188E-09-9.87021E-08
 -1      1160-8.26792E-08 6.26704E-09-1.04056E-07
 -1      1161 1.06609E-07 1.82319E-08-7.15403E-08
 -1      1162-2.41292E-08-1.16031E-08-2.55065E-08
 -1      1163 3.27344E-06 3.47912E-08-7.97889E-06
 -1      1164 1.09733E-06 1.58437E-07-2.99496E-06
 -1      1165 1.48030E-06 1.05278E-07-3.61970E-06
 -1      1166 1.61945E-06 1.06621E-07-2.77657E-06
 -1      1167 3.18665E-06 4.23168E-08-1.32539E-05
 -1      1168 3.18097E-06 3.74629E-08-1.14498E-05
 -1      1169 5.16464E-06 3.28110E-08-9.73218E-06
 -1      1170 1.30020E-06 3.89167E-08-9.70132E-06
 -1      1171 5.20110E-06 3.15476E-08-1.15151E-05
 -1      1172 4.17220E-08 7.22142E-08-5.04886E-06
 -1      1173 3.19298E-06 3.21835E-08-1.14303E-05
 -1      1174 3.18323E-06 3.08584E-08-9.54155E-06
 -1      1175 3.18998E-06 2.75446E-08-9.51304E-06
 -1      1176 3.19683E-06 2.78150E-08-1.13958E-05
 -1      1177 5.10338E-06 4.35721E-08-7.85343E-06
 -1      1178 3.19585E-06 3.32439E-08-1.33273E-05
 -1      1179 3.18894E-06 3.82880E-08-1.33554E-05
 -1      1180 1.35337E-06 1.97733E-08-7.82539E-06
 -1      1181 1.36281E-06 4.42692E-08-7.48980E-06
 -1      1182 5.07772E-06 1.49691E-08-7.52915E-06
 -1      1183 3.11983E-06 1.99817E-08-4.46645E-06
 -1      1184 3.91811E-06 7.79253E-08-4.04941E-06
 -1      1185 1.65787E-06-8.99436E-08-4.58860E-06
 -1      1186 1.96627E-06-4.20726E-08-5.31515E-06
 -1      1187 4.30864E-06 7.36871E-08-4.71620E-06
 -1      1188 1.29336E-06-8.69805E-08-5.13746E-06
 -1      1189 3.18428E-06 2.44981E-08-7.65234E-06
 -1      1190 3.18929E-06 4.90559E-08-1.50612E-05
 -1      1191 1.26278E-06 4.98669E-08-1.14909E-05
 -1      1192 1.95586E-06-4.09311E-08-5.54185E-06
 -1      1193 1.27662E-06-8.35009E-08-5.36573E-06
 -1      1194 1.30201E-06 6.04605E-08-9.04001E-06
 -1      1195 3.19508E-06 3.98922E-08-1.52628E-05
 -1      1196 9.65100E-08-8.64098E-08-6.41127E-06
 -1      1197 2.52711E-06 9.67664E-09-5.70249E-06
 -1      1198 1.31863E-06-4.44614E-08-6.61455E-06
 -1      1199 2.78234E-06 1.34114E-08-3.51999E-06
 -1      1200 3.89405E-06-5.79078E-08-3.23314E-06
 -1      1201 3.88474E-06-1.91955E-08-4.07740E-06
 -1      1202 5.15252E-06 1.50815E-08-9.07186E-06
 -1      1203 4.26941E-06-2.31526E-08-4.75850E-06
 -1      1204 4.35939E-06 1.95565E-09-5.93126E-06
 -1      1205 3.21541E-06 3.27003E-08-6.81182E-06
 -1      1206 2.85062E-06 3.66276E-08-6.09758E-06
 -1      1207 7.34129E-08-8.59311E-08-6.63343E-06
 -1      1208 1.47893E-06-8.06742E-08-3.60911E-06
 -1      1209 1.11192E-06-1.33787E-07-2.98376E-06
 -1      1210 1.63384E-06-7.35487E-08-2.76021E-06
 -1      1211 1.16267E-06 3.40789E-08-1.78817E-05
 -1      1212 3.18931E-06 4.36131E-08-1.51725E-05
 -1      1213 5.22734E-06 5.50857E-08-1.78041E-05
 -1      1214 1.15668E-06 4.69593E-08-1.77833E-05
 -1      1215 5.23309E-06 6.00497E-08-1.79046E-05
 -1      1216-2.51421E-09-1.26589E-08-3.43945E-10
 -1      1217-2.50333E-09-1.42418E-08 3.14888E-10
 -1      1218-2.96895E-09-1.94943E-08 1.27385E-09
 -1      1219-9.42486E-10-8.73240E-09-1.70555E-10
 -1      1220-3.15675E-09-1.76887E-08 1.07932E-09
 -1      1221-2.90229E-09-1.32170E-08 3.42662E-10
 -1      1222 4.72704E-06-8.78960E-08-3.72845E-06
 -1      1223 4.74649E-06 1.44097E-07-3.70578E-06
 -1      1224 5.38786E-08-8.49931E-08-6.87022E-06
 -1      1225 1.37688E-08-6.29902E-08-5.33391E-06
 -1      1226 3.18137E-06 4.62599E-08-1.25805E-05
 -1      1227 3.17389E-06 4.19236E-08-1.01158E-05
 -1      1228 4.58718E-06 1.05051E-07-4.28641E-06
 -1      1229 4.56053E-06-4.67310E-08-4.31798E-06
 -1      1230 1.19651E-06 1.70434E-07-2.12558E-06
 -1      1231-1.23332E-09-3.01396E-09-1.05240E-10
 -1      1232-1.41743E-09-2.03980E-09-9.73314E-11
 -1      1233-1.83952E-09-2.66875E-09 1.78485E-10
 -1      1234-1.62693E-09-3.42759E-09 1.09484E-10
 -1      1235 3.91664E-06 1.04967E-07-3.21326E-06
 -1      1236 5.11454E-06 7.84497E-08-8.13682E-06
 -1      1237 1.23295E-06-3.39583E-08-9.97503E-06
 -1      1238 5.15994E-06 7.92363E-08-9.99008E-06
 -1      1239 5.97987E-06-1.33969E-08-5.15935E-06
 -1      1240 6.09341E-06 1.35266E-08-5.05307E-06
 -1      1241 5.07839E-06-7.00820E-09-3.19863E-06
 -1      1242 4.23983E-06 6.56599E-09-5.52163E-06
 -1      1243 4.36937E-06 2.07184E-08-5.40293E-06
 -1      1244 1.63606E-06 1.16906E-07-4.63402E-06
 -1      1245 1.19039E-06 2.01526E-07-3.94990E-06
 -1      1246-2.97681E-09 1.34459E-08 1.78008E-10
 -1      1247-2.52529E-09 1.27192E-08-4.35248E-10
 -1      1248-2.51375E-09 1.44928E-08 1.76075E-10
 -1      1249 1.20121E-06-1.23602E-08-1.28645E-05
 -1      1250 5.19617E-06 7.07114E-08-1.28757E-05
 -1      1251 5.21512E-06 6.52912E-08-1.48212E-05
 -1      1252-9.45791E-10 8.81930E-09-2.16193E-10
 -1      1253-2.92266E-09 1.97691E-08 1.21649E-09
 -1      1254-3.07928E-09 1.79799E-08 9.48544E-10
 -1      1255 2.82143E-06 2.16278E-08-3.48353E-06
 -1      1256-1.51516E-09-8.39980E-10 2.16141E-10
 -1      1257-2.99737E-09-3.22626E-09 4.52007E-10
 -1      1258-1.98421E-09-1.58591E-09 7.81034E-11
 -1      1259-3.16908E-09-1.83258E-09 3.07627E-10
 -1      1260-8.41565E-08-5.00361E-08-1.64715E-07
 -1      1261 2.69660E-08-5.73847E-08-1.72286E-07
 -1      1262 3.07702E-08-1.66150E-07-5.09631E-07
 -1      1263 2.34991E-07-5.99113E-08-4.44638E-07
 -1      1264 6.99302E-08-8.80073E-08-3.53601E-07
 -1      1265-1.18611E-09 3.77095E-09-1.57330E-10
 -1      1266-1.54857E-09 3.35215E-09 4.08400E-11
 -1      1267-8.39258E-10 6.77073E-09-6.45962E-10
 -1      1268-1.46406E-09 6.03894E-09-4.61941E-10
 -1      1269-5.20739E-10 2.75223E-09-9.84811E-12
 -1      1270-8.39147E-08 5.58031E-08-1.68221E-07
 -1      1271-4.89162E-08 3.89734E-08-1.58593E-07
 -1      1272-5.17336E-08 1.59047E-07-3.79272E-07
 -1      1273-1.42398E-09 5.63586E-08-2.39473E-07
 -1      1274-2.48664E-08 9.21711E-08-2.86667E-07
 -1      1275-1.13566E-09 3.08505E-09-1.60449E-10
 -1      1276 1.27226E-06-3.91236E-08-8.10890E-06
 -1      1277 2.80699E-06 2.50698E-08-3.06088E-06
 -1      1278 2.79569E-06 1.21326E-08-3.07139E-06
 -1      1279 2.59292E-06 2.59813E-08-4.88209E-06
 -1      1280 6.62782E-08 4.18468E-09-5.05232E-06
 -1      1281-2.77480E-09-1.69538E-08-1.10121E-10
 -1      1282-7.24025E-10-1.10793E-08-9.14655E-10
 -1      1283 5.99355E-06 9.61643E-08-5.44229E-06
 -1      1284 6.15730E-06 1.15572E-07-5.82480E-06
 -1      1285 2.44415E-06 1.38800E-08-5.30625E-06
 -1      1286 2.52948E-06 5.78453E-08-8.09480E-06
 -1      1287-4.05092E-08 1.19083E-07-8.10979E-06
 -1      1288 1.21997E-06 8.67562E-08-9.34967E-06
 -1      1289 2.71883E-06 3.29295E-08-3.13086E-06
 -1      1290 2.44123E-06 2.32093E-08-5.02043E-06
 -1      1291 5.06952E-06 5.86352E-08-3.19920E-06
 -1      1292 4.46506E-06 6.85844E-09-7.07467E-06
 -1      1293 3.86384E-06 1.79357E-08-6.76753E-06
 -1      1294 5.21957E-06 5.28585E-08-1.74086E-05
 -1      1295 1.15666E-06 5.43088E-08-1.73883E-05
 -1      1296-3.06681E-09 1.19950E-08-5.11524E-10
 -1      1297 1.18562E-06 3.44391E-09-1.48025E-05
 -1      1298-3.43695E-09-1.56980E-08 2.94314E-10
 -1      1299 5.72312E-08 5.71690E-08-3.16866E-07
 -1      1300 4.20530E-08 2.48641E-08-2.62942E-07
 -1      1301 1.18402E-06 7.72823E-08-1.22521E-05
 -1      1302 5.19178E-06 3.69542E-08-1.47563E-05
 -1      1303 1.16381E-06 6.72238E-08-1.47358E-05
 -1      1304 5.16439E-06 2.21309E-08-1.22648E-05
 -1      1305-2.92423E-09 1.75666E-08-3.77888E-10
 -1      1306-7.07747E-10 1.14187E-08-1.14689E-09
 -1      1307 1.17012E-06 2.50265E-08-1.74704E-05
 -1      1308 5.23133E-06 6.11210E-08-1.74934E-05
 -1      1309 4.90641E-06-4.51904E-08-4.72912E-06
 -1      1310 5.01335E-06-3.57406E-08-5.37957E-06
 -1      1311 4.44459E-06 5.14028E-09-6.61166E-06
 -1      1312-3.68420E-09 1.62939E-08 3.00629E-11
 -1      1313 1.21473E-06-1.45089E-07-2.11605E-06
 -1      1314-6.86721E-10 5.49301E-09-6.45710E-10
 -1      1315 6.37709E-06-3.63747E-08-8.15435E-06
 -1      1316 5.12345E-06 3.62295E-09-9.36695E-06
 -1      1317-4.58851E-08-3.70130E-08-1.57203E-07
 -1      1318 2.92936E-08 1.68032E-07-5.06669E-07
 -1      1319 6.76751E-08 9.11618E-08-3.57940E-07
 -1      1320-1.79649E-09 6.22633E-09-1.31139E-09
 -1      1321-4.14309E-09 1.49044E-08-2.21624E-09
 -1      1322-4.27531E-09 1.33451E-08-1.90454E-09
 -1      1323-3.52254E-09 1.18249E-08 1.66216E-10
 -1      1324-3.49772E-09 9.36349E-09-1.92390E-10
 -1      1325-3.26810E-09 1.05111E-08-6.34325E-10
 -1      1326-1.74857E-09 2.43808E-09 8.78188E-11
 -1      1327-1.29350E-09 1.25678E-09 2.38782E-10
 -1      1328-3.12587E-09 1.91384E-09 2.90591E-10
 -1      1329-2.92406E-09 3.34580E-09 4.75415E-10
 -1      1330-1.86104E-09 1.33837E-09 9.06806E-12
 -1      1331-1.41443E-09 6.92899E-10 1.16141E-10
 -1      1332 8.06843E-08-2.26361E-09-2.79993E-08
 -1      1333 1.37882E-07-1.52056E-10 8.06816E-08
 -1      1334 1.94010E-07-2.12190E-09 6.09414E-08
 -1      1335-1.08449E-09 1.41867E-09-2.13058E-10
 -1      1336 1.82250E-09-1.54157E-09-7.32896E-10
 -1      1337 1.78857E-09-6.19024E-10-3.85305E-10
 -1      1338-2.09171E-09 3.44503E-09-1.81696E-10
 -1      1339-9.35135E-10-1.76568E-09-2.75917E-10
 -1      1340-5.81905E-09-1.44626E-08-9.36409E-10
 -1      1341-3.63652E-09-1.32594E-08 8.61146E-10
 -1      1342-5.24896E-09-1.72831E-08-7.68209E-10
 -1      1343 2.31928E-06-3.30189E-08-1.06027E-06
 -1      1344 2.89961E-06-4.77821E-08-1.53778E-06
 -1      1345 1.93504E-06 2.16901E-08-1.78395E-06
 -1      1346-3.72662E-09-5.64757E-09-5.83549E-10
 -1      1347-4.13327E-09-8.44680E-09-7.23927E-10
 -1      1348-3.67490E-09 5.65697E-09-4.23159E-10
 -1      1349-4.19082E-09 8.38015E-09-3.85431E-10
 -1      1350 1.21480E-06-1.74917E-07-3.91703E-06
 -1      1351-2.02280E-09 5.57165E-09-1.08236E-09
 -1      1352-2.00696E-08-1.10024E-07-3.07275E-07
 -1      1353-1.01512E-08-6.31299E-08-2.47743E-07
 -1      1354 1.52664E-07 3.63852E-08-3.96081E-07
 -1      1355 6.08239E-09-4.50414E-09-1.05667E-09
 -1      1356 2.27631E-08 6.07200E-08-1.82020E-07
 -1      1357 2.35485E-07 6.82545E-08-4.39312E-07
 -1      1358 2.56126E-06-1.75655E-09-6.85055E-06
 -1      1359 5.03047E-06-3.11702E-08-5.60003E-06
 -1      1360 4.45498E-06 6.07061E-09-6.83607E-06
 -1      1361 3.78890E-06-6.09438E-08-2.91734E-06
 -1      1362 2.66978E-06 1.14592E-08-3.17098E-06
 -1      1363-2.03636E-09 5.03212E-09-6.84400E-10
 -1      1364 3.90533E-07-2.46720E-07-9.83336E-07
 -1      1365 2.65007E-07-2.04365E-07-8.49366E-07
 -1      1366 9.13621E-07-2.93719E-08-2.34328E-07
 -1      1367 8.08515E-07-8.29432E-08-6.42185E-07
 -1      1368 1.39627E-06-1.12310E-08-4.67031E-07
 -1      1369 8.01130E-07-2.25224E-07-1.45548E-06
 -1      1370 1.37922E-06 2.77060E-08-4.70770E-07
 -1      1371 9.04199E-07 4.23414E-08-2.37881E-07
 -1      1372 3.68003E-07 2.59911E-07-9.92267E-07
 -1      1373 7.91671E-07 9.14091E-08-6.54496E-07
 -1      1374 7.78510E-07 2.44875E-07-1.46470E-06
 -1      1375-2.57404E-08 2.01673E-08-5.02038E-08
 -1      1376-1.72784E-08 3.62961E-08-6.74316E-08
 -1      1377-2.69077E-08 4.48811E-08-1.67636E-07
 -1      1378-1.27569E-09 1.66660E-08-8.45584E-08
 -1      1379 6.17741E-10 2.89952E-08-1.84986E-07
 -1      1380-1.22944E-08 9.02641E-08-2.78133E-07
 -1      1381-1.77628E-09-3.97532E-11-1.38736E-10
 -1      1382-1.20794E-09 2.81639E-11-2.34676E-10
 -1      1383-1.29891E-09 1.40433E-09-1.55090E-10
 -1      1384 1.78455E-08 3.98187E-09 2.42495E-08
 -1      1385 3.51243E-08 4.22062E-09 3.63939E-08
 -1      1386 2.46500E-08-2.98476E-10 2.86758E-08
 -1      1387-4.22246E-09 2.14725E-08-3.50910E-09
 -1      1388-3.16576E-09 2.27983E-08-1.84390E-09
 -1      1389 6.32342E-06 1.21495E-07-6.92555E-06
 -1      1390-1.68855E-09 2.67381E-09-2.12543E-10
 -1      1391-1.32271E-09 1.21263E-09-1.16544E-10
 -1      1392-2.93744E-09 5.27791E-09 3.23189E-10
 -1      1393-1.46839E-09-1.82058E-09-2.98405E-10
 -1      1394-1.78001E-09-3.30532E-09-2.80895E-10
 -1      1395-3.58760E-09-7.17614E-09 2.03027E-10
 -1      1396 1.45293E-06 6.53136E-08-1.23549E-06
 -1      1397-4.14234E-09-2.04494E-08-3.01174E-09
 -1      1398 5.32179E-09-7.29009E-11 1.23871E-08
 -1      1399 3.64173E-09-3.53788E-08-2.04684E-07
 -1      1400 6.44810E-08 3.41330E-10 4.61689E-08
 -1      1401 4.57012E-08-1.33863E-08 2.86869E-08
 -1      1402 6.40849E-08-6.99219E-09 4.52147E-08
 -1      1403-2.15499E-08 9.91587E-09-6.02629E-08
 -1      1404-3.20004E-09-2.24410E-08-1.76489E-09
 -1      1405-3.94295E-09 1.40940E-08 7.73246E-10
 -1      1406-1.56968E-09-1.27613E-09-7.15502E-11
 -1      1407 2.57341E-07 2.16228E-07-8.46898E-07
 -1      1408 3.39541E-07 8.61581E-10-8.41061E-08
 -1      1409 1.53873E-07-2.58944E-08-3.93513E-07
 -1      1410 2.68532E-07 1.38443E-09-4.61352E-07
 -1      1411 1.16355E-07-1.19327E-07-3.76414E-07
 -1      1412 5.58756E-08-5.71049E-08-3.24859E-07
 -1      1413 1.77178E-06 3.72647E-08-5.46198E-06
 -1      1414-3.91144E-09 1.03834E-08 3.44784E-10
 -1      1415 3.66021E-10-7.24634E-11-4.31955E-10
 -1      1416-2.98600E-10 8.07823E-10-3.11164E-10
 -1      1417 2.20049E-09 2.67268E-09-5.24147E-10
 -1      1418-3.23477E-09 2.65696E-09-2.78704E-10
 -1      1419-3.20926E-09-2.53896E-09-3.61645E-10
 -1      1420-2.78619E-09 3.34509E-11-3.23781E-11
 -1      1421 6.80317E-07 1.37273E-09-1.04902E-07
 -1      1422 5.69435E-07-6.51861E-08-6.02241E-07
 -1      1423-6.49958E-09 1.95041E-08-2.22868E-09
 -1      1424-7.01127E-09 1.57060E-08-1.50208E-09
 -1      1425-1.97352E-09-1.41481E-09-2.16474E-10
 -1      1426-1.54721E-09-9.24857E-10-2.56120E-10
 -1      1427-2.41365E-09-3.64322E-09-1.89284E-10
 -1      1428-6.42498E-10-5.36793E-10-2.81326E-10
 -1      1429 1.39521E-09-2.83658E-09-6.12548E-10
 -1      1430 2.59311E-07-4.20914E-10 1.10556E-08
 -1      1431 4.49905E-07-2.19073E-09 1.36581E-07
 -1      1432 3.52263E-07-1.91030E-09 1.59754E-07
 -1      1433 1.17179E-07 3.81747E-10-1.07699E-07
 -1      1434-2.99105E-10 3.73319E-09-1.74560E-10
 -1      1435-5.16601E-10 2.04063E-09-3.37222E-10
 -1      1436 1.70527E-09 3.59299E-09-3.54806E-10
 -1      1437 5.57662E-08 6.92191E-09 4.44105E-08
 -1      1438 1.49261E-07-3.01119E-10 1.02733E-07
 -1      1439 5.20676E-08-6.39629E-09 4.14064E-08
 -1      1440 1.31848E-07-1.63055E-09 1.01839E-07
 -1      1441 9.10181E-08-2.63052E-09 7.42573E-08
 -1      1442 3.70348E-08-4.00645E-09 3.81172E-08
 -1      1443-6.25380E-11 3.56392E-09 1.42612E-10
 -1      1444 4.99600E-08-1.73472E-09 1.82895E-08
 -1      1445-1.49821E-08 1.98777E-09-2.66250E-08
 -1      1446 8.42494E-09-8.11179E-10 1.48442E-08
 -1      1447-1.67742E-08-2.59761E-09-2.62263E-08
 -1      1448 1.61187E-08 2.07526E-11-9.30158E-08
 -1      1449-1.95517E-09 3.63364E-09-4.80597E-10
 -1      1450-3.56080E-09 7.89118E-09 1.44962E-10
 -1      1451 2.10634E-08-3.83093E-09 2.50223E-08
 -1      1452-5.63895E-10-4.29838E-11 5.86846E-09
 -1      1453-2.33842E-08 2.94632E-08-2.81757E-08
 -1      1454-1.05722E-09-1.23023E-09-2.72381E-10
 -1      1455-6.84232E-10-2.01843E-09-4.14087E-10
 -1      1456 5.63892E-08-1.86661E-08 3.89206E-08
 -1      1457 7.69751E-08 5.27605E-10 6.14570E-08
 -1      1458 1.47225E-06-4.27493E-08-1.23670E-06
 -1      1459 2.33926E-06 6.09659E-08-1.05502E-06
 -1      1460 5.20758E-08 1.08696E-08 3.70848E-08
 -1      1461 1.73333E-07-1.67583E-09 1.15562E-07
 -1      1462 2.92350E-06 8.41509E-08-1.52908E-06
 -1      1463 1.95667E-06 5.37010E-09-1.78469E-06
 -1      1464-4.94663E-09-2.40501E-08-1.00265E-07
 -1      1465-2.10425E-08-1.10058E-08-5.29327E-08
 -1      1466-2.48995E-08-2.12297E-08-4.60381E-08
 -1      1467-3.35328E-08-5.21585E-08-1.85026E-07
 -1      1468-2.07022E-08 9.27159E-09-2.70945E-08
 -1      1469-1.78630E-09 2.10983E-09-8.54358E-11
 -1      1470 3.55141E-07-6.06464E-08-1.84260E-07
 -1      1471 6.18867E-10 7.04557E-09 5.42261E-11
 -1      1472 3.61112E-09 8.14505E-09 3.66909E-10
 -1      1473 3.43843E-08-2.20825E-08-2.74002E-07
 -1      1474 6.39848E-08 1.83288E-08 4.59933E-08
 -1      1475-4.21528E-09-1.34663E-08-1.92547E-09
 -1      1476-4.52280E-09-1.09133E-08-1.62530E-09
 -1      1477-4.43539E-09 1.07137E-08-1.45853E-09
 -1      1478 2.63118E-07-2.52147E-10 1.51066E-07
 -1      1479-1.26975E-08-1.87792E-08-6.51775E-09
 -1      1480-1.19643E-08-3.10468E-08-1.65519E-08
 -1      1481 1.96265E-06 1.03127E-08-1.80666E-06
 -1      1482 1.09397E-06 6.28404E-08-1.03748E-06
 -1      1483 1.93934E-06 2.76144E-09-4.06179E-07
 -1      1484 2.94190E-06 1.29374E-08-9.09956E-07
 -1      1485-3.75379E-09-9.94627E-09 2.84506E-10
 -1      1486-1.50793E-08 1.02953E-09-5.64334E-08
 -1      1487 1.22854E-08 3.83266E-09-1.91245E-07
 -1      1488 3.80870E-06 1.04404E-07-2.90193E-06
 -1      1489-5.88865E-09-7.91086E-09-8.92243E-08
 -1      1490 5.82074E-07 1.51343E-09-6.48121E-07
 -1      1491 1.08529E-06 1.28251E-08-1.08335E-06
 -1      1492 5.19906E-07 7.43226E-08-6.24999E-07
 -1      1493-1.15325E-08 3.34317E-08-2.02846E-08
 -1      1494-1.29051E-08 2.23073E-08-9.32279E-09
 -1      1495 2.21301E-06 4.01496E-09-1.49704E-07
 -1      1496 2.10046E-06 4.89460E-09 1.14014E-07
 -1      1497 2.78970E-06 7.13769E-09-3.42211E-07
 -1      1498 1.26917E-06 4.88902E-09-1.29355E-07
 -1      1499 1.09295E-06-4.75859E-08-1.05418E-06
 -1      1500-7.32276E-10 1.78127E-09-2.91508E-10
 -1      1501-4.72269E-10-3.65445E-09-2.71434E-10
 -1      1502 4.81254E-10-7.17239E-09-3.68603E-11
 -1      1503 3.51955E-09-7.19785E-09-1.80886E-11
 -1      1504-1.24978E-08 6.17276E-09-5.41138E-09
 -1      1505 1.52514E-09-7.13417E-10 5.26765E-09
 -1      1506-6.46436E-10-4.55424E-10 6.48112E-09
 -1      1507-5.56848E-09-9.53209E-09-2.50733E-10
 -1      1508-3.48363E-09-5.43896E-09-2.46569E-10
 -1      1509-2.94484E-09-3.93079E-09-2.39862E-10
 -1      1510-8.95693E-09-9.50747E-09-2.76030E-09
 -1      1511-4.09711E-09-1.48743E-08-2.05448E-09
 -1      1512-1.84854E-09-6.15956E-09-1.43662E-09
 -1      1513-2.75034E-09-1.21238E-08-2.04597E-09
 -1      1514-5.69210E-09-5.37545E-09-1.09327E-09
 -1      1515 6.60930E-07 4.34668E-10 1.06631E-07
 -1      1516 7.26037E-07-2.01400E-09 2.70650E-07
 -1      1517 1.01906E-06 9.05556E-10 2.66280E-07
 -1      1518-8.84334E-09 1.23948E-08-2.13403E-09
 -1      1519-4.78928E-09 9.90497E-09-9.26251E-11
 -1      1520-2.06690E-08-8.94244E-09-2.91589E-08
 -1      1521 3.35203E-09 7.85015E-10 1.59231E-09
 -1      1522 1.15103E-08 5.87064E-09 4.97008E-09
 -1      1523 1.21784E-08 4.27389E-09 9.45485E-09
 -1      1524-2.34729E-08-2.70326E-08-2.23133E-08
 -1      1525-1.67735E-08-1.52373E-08-1.01117E-08
 -1      1526-1.70298E-09-2.28857E-09-2.01624E-10
 -1      1527-3.32173E-09-1.13798E-08 2.24802E-10
 -1      1528-9.79083E-09 4.37427E-08-5.38140E-08
 -1      1529-4.04827E-09 2.56441E-09 3.65311E-10
 -1      1530-1.82399E-08-3.62920E-08-6.72585E-08
 -1      1531-1.31607E-09-8.60492E-12-7.84296E-11
 -1      1532 2.54112E-07-1.10699E-10 1.53523E-07
 -1      1533 2.29084E-07-9.51774E-10 1.47989E-07
 -1      1534 3.77169E-07-1.37131E-09 2.16383E-07
 -1      1535-2.11801E-08-1.33010E-08-2.06249E-08
 -1      1536-1.16657E-08-6.62943E-09-6.06916E-09
 -1      1537-2.38090E-08 1.34531E-08-2.10381E-08
 -1      1538 3.96103E-06 6.22549E-08-1.84173E-06
 -1      1539 3.95452E-06-2.96033E-08-1.84161E-06
 -1      1540-1.30468E-08-4.14934E-08-4.82766E-08
 -1      1541 1.06614E-07 1.25040E-07-3.81804E-07
 -1      1542 6.42819E-06 1.16915E-07-8.74862E-06
 -1      1543-4.77187E-08-7.46305E-08-8.71118E-06
 -1      1544-9.49247E-09 9.27138E-09-4.02276E-09
 -1      1545-1.65631E-08 1.78330E-08-1.08460E-08
 -1      1546 1.45616E-08-7.51004E-09 7.49949E-09
 -1      1547 4.00590E-09-3.30866E-09 2.12939E-09
 -1      1548 1.36930E-08-5.37727E-09 1.11948E-08
 -1      1549-7.34798E-11-5.42521E-10 4.12543E-09
 -1      1550 2.54544E-08 8.37671E-09 9.81720E-09
 -1      1551 1.45106E-08 9.37624E-09 2.18227E-09
 -1      1552 4.17666E-08 1.55759E-08 2.13609E-08
 -1      1553-1.52618E-09 1.76164E-10-1.11856E-10
 -1      1554 4.98210E-06-6.10111E-08-4.42572E-06
 -1      1555 2.01406E-08-1.02198E-08 6.81269E-09
 -1      1556 3.50510E-08-1.42714E-08 1.64643E-08
 -1      1557 2.84079E-08-1.06602E-08 1.17421E-08
 -1      1558 1.45251E-08-7.59750E-09 4.27836E-09
 -1      1559 4.43193E-07-2.68681E-09 2.41480E-07
 -1      1560 5.29403E-07-3.23529E-09 2.69991E-07
 -1      1561 6.33594E-07-2.09794E-09 3.08283E-07
 -1      1562 7.90667E-09-3.44570E-09 9.26962E-09
 -1      1563 3.07615E-08 1.20892E-08 2.05559E-08
 -1      1564 1.71102E-06 4.03575E-09-1.22302E-07
 -1      1565 2.55401E-06 9.08482E-09-4.64251E-07
 -1      1566 2.64111E-09 1.79436E-09-4.37393E-10
 -1      1567 6.87849E-09 5.05831E-09-5.07963E-10
 -1      1568-2.50340E-09-1.23797E-08-1.41364E-09
 -1      1569 3.39172E-08-1.13649E-08 2.32204E-08
 -1      1570-2.74158E-09 1.21438E-08-1.86105E-09
 -1      1571-2.02605E-09 3.30478E-09 4.26963E-10
 -1      1572-3.77407E-09 2.91674E-08-1.04004E-08
 -1      1573-1.90679E-09-5.69733E-09-4.46578E-10
 -1      1574-1.95708E-09-4.27757E-09-7.11001E-10
 -1      1575 1.14507E-08 4.87952E-09 2.39623E-09
 -1      1576 6.13978E-06-1.74520E-08-5.16679E-06
 -1      1577-2.11169E-09-3.30657E-09 3.90154E-10
 -1      1578-1.92144E-09-3.74686E-09 2.50237E-10
 -1      1579-3.96451E-09-2.92894E-08-1.01466E-08
 -1      1580-5.12251E-09 6.80747E-09-9.29940E-10
 -1      1581 3.47322E-09 8.49188E-10 3.32699E-10
 -1      1582 3.31871E-07 7.02654E-08-1.96986E-07
 -1      1583 6.15969E-06 1.00824E-07-5.44857E-06
 -1      1584 1.10332E-06 3.56055E-10 3.54957E-07
 -1      1585 1.13200E-06 3.03731E-09 1.27125E-07
 -1      1586-1.31687E-09 3.24963E-10-1.40351E-10
 -1      1587 1.49829E-08-9.41539E-09 2.88693E-09
 -1      1588 3.97969E-07-4.53188E-09 2.14806E-07
 -1      1589-2.81499E-09 1.22258E-10-5.37032E-11
 -1      1590 5.16776E-07-2.92635E-09 2.44041E-07
 -1      1591 6.30451E-06 1.22492E-07-6.69210E-06
 -1      1592 6.28498E-06 1.22830E-07-6.47500E-06
 -1      1593 1.14004E-08-1.13344E-08 2.61837E-09
 -1      1594-2.43331E-09 1.25310E-08-1.46188E-09
 -1      1595 2.90983E-08-1.96722E-08 1.49899E-08
 -1      1596-1.85661E-09 3.70444E-09 2.76519E-10
 -1      1597 2.88959E-07-1.60329E-09 1.64915E-07
 -1      1598-1.44629E-10-3.54876E-09 7.42934E-11
 -1      1599 1.45882E-06 4.42044E-09 2.83679E-07
 -1      1600 5.33363E-06-5.17273E-08-5.34207E-06
 -1      1601 5.08570E-06-5.62690E-08-5.06324E-06
 -1      1602 5.10927E-06 1.21232E-07-5.01837E-06
 -1      1603 5.35239E-06 1.20298E-07-5.29522E-06
 -1      1604 5.03862E-06 1.03344E-07-5.33155E-06
 -1      1605 1.10254E-07 1.11756E-07-6.12918E-06
 -1      1606-1.02825E-07 1.04052E-07-5.54121E-06
 -1      1607 2.97516E-08 2.00329E-08 1.44757E-08
 -1      1608 8.28150E-07-1.56641E-09 3.39478E-07
 -1      1609 1.16776E-08 1.27735E-08 3.41542E-09
 -1      1610 5.34999E-06-4.77076E-08-5.56101E-06
 -1      1611 5.36985E-06 1.17647E-07-5.51174E-06
 -1      1612 5.05473E-06 1.00765E-07-5.54929E-06
 -1      1613 6.10839E-06 4.63788E-08-5.17376E-06
 -1      1614 5.94614E-06 4.56953E-08-5.16774E-06
 -1      1615 6.13308E-06-3.30586E-08-5.54211E-06
 -1      1616-1.98228E-09-5.59474E-09-1.54994E-09
 -1      1617 1.69971E-06 1.16655E-08 1.32848E-07
 -1      1618-8.85831E-10-6.90677E-09-6.26846E-10
 -1      1619-1.22015E-07-8.99525E-08-5.82764E-06
 -1      1620-1.46386E-09-6.14072E-09-4.85017E-10
 -1      1621 3.22680E-06 1.09039E-08-7.37446E-07
 -1      1622-6.04831E-10-2.71208E-09-3.29925E-11
 -1      1623 1.26679E-06 1.23096E-07-5.17981E-06
 -1      1624 1.25021E-06 1.21822E-07-5.40881E-06
 -1      1625 4.68605E-06 1.03019E-07-4.90718E-06
 -1      1626 4.40031E-06 7.14540E-08-5.36223E-06
 -1      1627 4.41318E-06 6.80313E-08-5.58248E-06
 -1      1628 4.23467E-06 2.91965E-08-5.52757E-06
 -1      1629-1.05530E-09-3.87517E-09-1.44383E-10
 -1      1630-5.77961E-10-4.60319E-09-3.29061E-10
 -1      1631-3.04722E-09-1.19112E-08-4.29019E-10
 -1      1632 1.98927E-06 5.76516E-08-6.56988E-06
 -1      1633 1.94737E-06 8.97813E-08-5.35113E-06
 -1      1634 1.93178E-06 8.68748E-08-5.58265E-06
 -1      1635 1.97115E-06 6.29006E-08-7.04398E-06
 -1      1636 1.97968E-06 6.04732E-08-6.79925E-06
 -1      1637 6.27049E-06-4.05128E-08-6.42017E-06
 -1      1638 6.25281E-06-4.03753E-08-6.20008E-06
 -1      1639 4.85466E-06 1.41779E-07-4.28678E-06
 -1      1640-1.86715E-09-1.63351E-10-8.84690E-11
 -1      1641-1.61011E-09 1.38615E-10-1.55589E-10
 -1      1642 8.74830E-08 1.12570E-07-6.35227E-06
 -1      1643 6.58819E-08 1.13367E-07-6.59128E-06
 -1      1644 2.86338E-08 9.64455E-09 2.24243E-08
 -1      1645 2.87510E-08-1.01331E-08 2.31863E-08
 -1      1646 6.28789E-06-4.02231E-08-6.65660E-06
 -1      1647-4.48652E-09 6.95188E-09-2.26098E-10
 -1      1648 5.44341E-09-2.39163E-09 6.59599E-10
 -1      1649-1.56479E-09-4.06190E-09 9.97843E-12
 -1      1650-1.52450E-09 4.00641E-09 2.29513E-11
 -1      1651-2.22391E-09-1.28173E-08-4.33096E-10
 -1      1652 2.56350E-06-1.83202E-09-6.60779E-06
 -1      1653 2.56597E-06-4.98603E-10-6.38122E-06
 -1      1654-2.17348E-09 1.29691E-08-5.81431E-10
 -3
    1PSTEP                         2           1           1          
  100CL  101 1.000000000        1654                     0    1           1
 -4  STRESS      6    1
 -5  SXX         1    4    1    1
 -5  SYY         1    4    2    2
 -5  SZZ         1    4    3    3
 -5  SXY         1    4    1    2
 -5  SYZ         1    4    2    3
 -5  SZX         1    4    3    1
 -1         1-3.39263E-06-1.04961E-06-1.23910E-05 9.22393E-07 4.95154E-06-5.53689E-06
 -1         2 1.06137E-06 8.98270E-06-1.30311E-06 1.79012E-06-1.43211E-06-1.26826E-06
 -1         3 1.10369E-05 1.31172E-05 3.93083E-05-2.45609E-06-2.78355E-05-2.65125E-05
 -1         4 4.89322E-07 3.22139E-06-2.51361E-06-3.31187E-07-4.81017E-05-1.29357E-05
 -1         5 9.89194E-07 8.35585E-06 8.07845E-07-1.00168E-06-2.33173E-07 2.11111E-07
 -1         6-5.34378E-06-9.25974E-07-1.21354E-05-3.04607E-07-4.81448E-06-5.68800E-06
 -1         7 5.83527E-07 4.80611E-06-1.95972E-06 2.63403E-07 4.74005E-05-1.26429E-05
 -1         8 1.24402E-05 1.32853E-05 4.08802E-05 4.54486E-07 2.83451E-05-2.61505E-05
 -1         9-1.15019E-06 6.02718E-06 2.60705E-05-1.10854E-07-2.47011E-05 2.11015E-06
 -1        10 1.12619E-05 2.07940E-06 4.06861E-05-1.55488E-06-1.48438E-05-9.59318E-06
 -1        11 2.23036E-06-1.50403E-05-1.27974E-05-6.20474E-06 1.41137E-04-1.12216E-05
 -1        12-5.15879E-05-5.26142E-05-1.68796E-04-1.46965E-06 9.88664E-05-2.62320E-05
 -1        13 1.75135E-05 9.60907E-06 3.34439E-05 4.33284E-07 3.34727E-05-1.19382E-05
 -1        14 9.30367E-06 1.95760E-06 2.80407E-05-2.75326E-06 2.75545E-05-3.02264E-07
 -1        15-8.41750E-05-9.22574E-05-2.21911E-04-1.08910E-06-1.23408E-04-2.74785E-05
 -1        16-6.56023E-08-2.85260E-06 9.36275E-08 2.33493E-06-1.41066E-04-9.05897E-06
 -1        17-1.13326E-04-6.28492E-05 1.43129E-03-3.69646E-04-5.10552E-04 4.02524E-04
 -1        18-1.01396E-04-1.21460E-04 1.27245E-03 4.62350E-04 6.10465E-04 2.78551E-04
 -1        19-1.85575E-04-1.66504E-03-3.65295E-03 2.12976E-04 1.58752E-03-5.07098E-04
 -1        20 2.13897E-04 1.97146E-04-1.02554E-02 4.63411E-05 9.67610E-04-2.29310E-03
 -1        21 2.94159E-04 2.54357E-04-9.90560E-03-7.46602E-05-9.86673E-04-2.16804E-03
 -1        22-2.31466E-04-1.71852E-03-3.60155E-03-2.19824E-04-1.60716E-03-5.38399E-04
 -1        23-8.83032E-04-4.27795E-04-1.05616E-03-1.94198E-04 2.88043E-05-6.19439E-04
 -1        24-7.36229E-04-4.03447E-04-1.24231E-03 3.30454E-04 2.35046E-04-9.61509E-04
 -1        25-7.51727E-04-4.22088E-04-1.25860E-03-3.17879E-04-2.28759E-04-1.10526E-03
 -1        26-7.96551E-04-3.50422E-04-1.14873E-03 1.39743E-04-9.01437E-05-6.05355E-04
 -1        27 4.52312E-03-6.75823E-05-8.79765E-04 7.04562E-04 3.22666E-04 3.35507E-04
 -1        28 1.00335E-02 1.64056E-03 1.20999E-03 1.88207E-03 3.16656E-04 1.77582E-03
 -1        29 6.22538E-03-4.31946E-05 1.19023E-04 3.99535E-04 1.65764E-05 3.31445E-05
 -1        30-1.94448E-04 2.60572E-04 6.63454E-03 8.39336E-05-4.16151E-06-6.41342E-04
 -1        31-2.13797E-03 7.56266E-05 1.37099E-03-4.25789E-04 4.88666E-04 2.61127E-04
 -1        32 9.24594E-03 1.13519E-03 1.10319E-05-1.35834E-03-1.75208E-04 9.57410E-04
 -1        33 5.41369E-03-6.07344E-05-8.30779E-04-6.54415E-04-3.02789E-04-2.27183E-04
 -1        34-1.88421E-03 1.62883E-04 1.52871E-03 5.60053E-04-6.28581E-04 1.88876E-04
 -1        35-1.23148E-04 2.47667E-04 6.60776E-03-4.15313E-05 6.43584E-05-4.63622E-04
 -1        36 6.33790E-03-8.47668E-05 3.37094E-04-4.92767E-04-7.72309E-05-7.57387E-05
 -1        37-4.18795E-05-3.11975E-04-5.96955E-04-5.14420E-06 6.97211E-06 5.72348E-05
 -1        38 3.61776E-05 3.22789E-04 2.96334E-05-8.70474E-06-5.99890E-06 5.07211E-05
 -1        39-6.88117E-03 2.31424E-05 1.80868E-04 1.47176E-03-2.36768E-04-1.36752E-03
 -1        40-6.85073E-03-1.25891E-04 4.94319E-04-1.17241E-03 3.91663E-05-9.30745E-04
 -1        41-3.17933E-03-3.91300E-04 2.05405E-05-7.09345E-04-8.52259E-05-7.44195E-04
 -1        42 3.04507E-03 3.90720E-04-8.44652E-04 5.90782E-04 2.36265E-05-3.75082E-04
 -1        43 7.10048E-03 1.73099E-03 2.98673E-03 1.94806E-03 1.68949E-03 4.66831E-03
 -1        44 6.67175E-03 1.30279E-03 2.19615E-03-1.46844E-03-1.06510E-03 4.31927E-03
 -1        45 3.33169E-03 2.65523E-04-9.11279E-04-5.43712E-04 4.82302E-05-5.10607E-04
 -1        46-3.27498E-03-4.08326E-04 9.55032E-06 7.09690E-04 1.40930E-04-6.03960E-04
 -1        47-9.08333E-03 1.69285E-04-1.26228E-04-5.58227E-04-1.72309E-04-2.10583E-03
 -1        48-8.85486E-03 1.27146E-04 1.22906E-04 6.42467E-04 6.32482E-05-2.25066E-03
 -1        49-1.49797E-06 1.84490E-06-5.14979E-06 6.48150E-07 3.05961E-06-1.15288E-06
 -1        50 7.31728E-07 1.86607E-06-7.54542E-06 1.23504E-06 3.32192E-06-5.87513E-06
 -1        51-3.66455E-06 1.07478E-06-3.68211E-06-1.51286E-06 4.11231E-08-4.53997E-07
 -1        52-5.34898E-06-1.10296E-06 8.83964E-06-6.03577E-07-5.48768E-06-1.54712E-05
 -1        53 1.15955E-05 4.46493E-06 2.33821E-05-8.83661E-07-3.83725E-05-2.63348E-05
 -1        54 1.79767E-05 1.29661E-05 3.37411E-05-2.05212E-06-3.29007E-05-2.88380E-05
 -1        55 5.63553E-06 1.89628E-06 1.04792E-05-1.25343E-07-4.59327E-05-2.07982E-05
 -1        56-1.72029E-06 8.94599E-06-3.25250E-06-3.00573E-07-2.41365E-05-2.74707E-06
 -1        57-2.50919E-06-6.09858E-07-5.68195E-06 7.05336E-07-4.58674E-06-3.25162E-07
 -1        58-2.34770E-06 1.75855E-06-1.16494E-06 1.47531E-06-1.06652E-06 2.17581E-07
 -1        59 9.12326E-07 2.17087E-06-7.01087E-06-1.10261E-06-3.73907E-06-6.01190E-06
 -1        60-1.66252E-06 7.79556E-06-2.28166E-06-4.53878E-09 2.23617E-05-2.63347E-06
 -1        61 1.02020E-05 5.53883E-06 2.35820E-05 3.06971E-07 3.69695E-05-2.51797E-05
 -1        62 6.39277E-06 5.78299E-06 1.20851E-05-7.05909E-07 4.48367E-05-2.07670E-05
 -1        63 1.69157E-05 1.21534E-05 3.37898E-05 1.29965E-06 3.20139E-05-2.80060E-05
 -1        64-5.27067E-06-1.45412E-06 9.54897E-06 3.56467E-07 5.66388E-06-1.58839E-05
 -1        65 1.26044E-05 6.56363E-06 6.32984E-05-3.15469E-06-2.12130E-05-1.22846E-06
 -1        66 4.70188E-06 1.29152E-06 5.33340E-05-2.02943E-06-1.24164E-05-5.26402E-06
 -1        67 9.22919E-07 5.29847E-06 6.23776E-05 8.88952E-07-2.12546E-05-3.45101E-06
 -1        68 8.13846E-06-3.99040E-06 5.42114E-06-6.15730E-06 4.82645E-05-5.12916E-06
 -1        69-2.29929E-05-2.29101E-05-9.29607E-05 4.26819E-06 1.17726E-04-3.16115E-05
 -1        70-5.16544E-06-1.35207E-05-4.71145E-05 2.09924E-06 1.38211E-04-2.06839E-05
 -1        71-4.26923E-05-3.42295E-05-1.19336E-04 4.03658E-06 1.08860E-04-3.55463E-05
 -1        72 1.67543E-06-4.03647E-06-4.37398E-05-2.77104E-06 1.99864E-05-2.22205E-05
 -1        73 2.25961E-05 2.10155E-05 4.73976E-05-3.75056E-07 3.82154E-05-1.24348E-05
 -1        74 1.50167E-05 1.19297E-05 4.09532E-05 1.44783E-06 4.06130E-05-1.32254E-05
 -1        75 8.98872E-06 1.33980E-05 3.79816E-05-4.85002E-06 2.05960E-05-1.37431E-05
 -1        76-1.18623E-05-3.41639E-05-5.57403E-05 1.45854E-06-2.80896E-05-1.93310E-05
 -1        77-4.03473E-05-5.01116E-05-1.13710E-04 2.26725E-06-1.22246E-04-1.40786E-05
 -1        78-6.71045E-05-6.79953E-05-1.59979E-04 3.22551E-07-1.28772E-04-2.46043E-05
 -1        79-2.64522E-05-3.17020E-05-5.75285E-05-2.05889E-06-1.38798E-04-1.79485E-05
 -1        80 1.07014E-05-9.77684E-06 7.23858E-06 1.86990E-06-4.80368E-05-9.13923E-06
 -1        81-8.36046E-06 1.40902E-06 1.34904E-06 5.20894E-06-1.23822E-06-4.57331E-06
 -1        82-7.99623E-06 5.20409E-06 3.25757E-06 3.82327E-06-4.05521E-06-3.93325E-06
 -1        83 8.47590E-06 5.83600E-06 6.64061E-06 7.27721E-06-6.31380E-06-6.13253E-06
 -1        84-3.16128E-07 8.89337E-07-1.22841E-06 1.69953E-06 4.08630E-07-5.38432E-06
 -1        85-5.96789E-06 3.89055E-06 2.72483E-06 5.20731E-06-2.33799E-06-4.36139E-06
 -1        86-2.28108E-06 2.30232E-06 3.99777E-06 5.43539E-06-5.96942E-06-5.29516E-06
 -1        87 5.42394E-06-2.03975E-07 1.28634E-05 2.10174E-06-5.94197E-06-4.86427E-06
 -1        88-7.18064E-06-8.34496E-06-1.77983E-05-3.44311E-07 6.08432E-06-3.64035E-05
 -1        89-3.54747E-05-3.65795E-05-8.68969E-05-3.56648E-07 4.34868E-05-4.36556E-05
 -1        90-7.96057E-05-8.16544E-05-1.93020E-04-6.66917E-07 9.06404E-05-4.89684E-05
 -1        91 1.36929E-05 1.36929E-05 3.19500E-05-8.35842E-12-1.53631E-05-3.53239E-05
 -1        92-2.08185E-05-2.08186E-05-4.85766E-05-2.06024E-11 2.45225E-05-4.02955E-05
 -1        93-5.98723E-05-5.98724E-05-1.39702E-04-3.21245E-11 6.67140E-05-4.70072E-05
 -1        94-9.73251E-05-9.73251E-05-2.27092E-04-2.71617E-11 1.08488E-04-4.15837E-05
 -1        95-3.31691E-06-2.39072E-06-7.41646E-06-5.24990E-07-2.30867E-06-3.84841E-05
 -1        96-3.49630E-05-3.42312E-05-8.19879E-05-9.17957E-07-3.87745E-05-4.53332E-05
 -1        97-7.37406E-05-7.18430E-05-1.71685E-04-1.35133E-06-8.05876E-05-4.85715E-05
 -1        98 1.28022E-05 1.28022E-05 2.98718E-05 6.68755E-12 1.53482E-05-3.36081E-05
 -1        99-2.02934E-05-2.02934E-05-4.73512E-05 5.32013E-12-2.11747E-05-4.08053E-05
 -1       100-5.05421E-05-5.05421E-05-1.17932E-04 2.11958E-11-5.94934E-05-4.43159E-05
 -1       101-1.07363E-04-1.07363E-04-2.50514E-04 1.55205E-11-1.06410E-04-4.28044E-05
 -1       102-8.26889E-06 1.31786E-06 1.51524E-06-4.72191E-06 1.22212E-06-4.57557E-06
 -1       103-9.42183E-06 5.42790E-06 3.01652E-06-5.38927E-06 4.12620E-06-5.09192E-06
 -1       104 1.06180E-05 6.28822E-06 7.00755E-06-4.66053E-06 8.41486E-06-2.89731E-06
 -1       105-9.44110E-07 2.99399E-06-1.16249E-06-1.40380E-06 1.05365E-08-5.47619E-06
 -1       106-7.46738E-06 3.90358E-06 1.72418E-06-5.85966E-06 1.60580E-06-4.55137E-06
 -1       107-3.75016E-06 1.34294E-06 1.88872E-06-5.33525E-06 8.30964E-06-4.10681E-06
 -1       108 6.65793E-06 1.80170E-06 1.43066E-05-2.99519E-06 9.49065E-06-4.64268E-06
 -1       109-7.07853E-05-3.11601E-04-3.59771E-04 6.78114E-06-4.13179E-04 3.55080E-05
 -1       110-7.03786E-04-8.67742E-04-2.47530E-03-1.53457E-05-4.90521E-04 1.58183E-04
 -1       111-8.92242E-04-1.22236E-03-3.17697E-03 7.29651E-06-4.40615E-05 2.81838E-04
 -1       112-6.87220E-04-8.96754E-04-2.47055E-03 1.28135E-05 5.07771E-04 1.86921E-04
 -1       113-7.01930E-05-3.06162E-04-3.46480E-04 1.10480E-05 4.14856E-04 3.99183E-05
 -1       114-4.72600E-05-4.72593E-05-1.10273E-04 1.44165E-11-2.32496E-04 1.62865E-05
 -1       115-5.54356E-04-5.54354E-04-1.29349E-03 2.99646E-10-5.41581E-04 1.24458E-04
 -1       116-1.21652E-03-1.21652E-03-2.83853E-03 2.24164E-10-2.19281E-04 2.54919E-04
 -1       117-1.21155E-03-1.21155E-03-2.82694E-03-2.46578E-11 2.18684E-04 3.09148E-04
 -1       118-5.38188E-04-5.38186E-04-1.25576E-03-1.75366E-10 5.43424E-04 1.27287E-04
 -1       119-4.57793E-05-4.57785E-05-1.06818E-04-1.97767E-11 2.37340E-04 1.86457E-05
 -1       120 5.79781E-05 9.48619E-05 1.00791E-04-5.08832E-06 1.53633E-04 2.60228E-05
 -1       121 3.71371E-04 4.71650E-04 8.62393E-04-6.89978E-05 4.32297E-04 2.42642E-04
 -1       122 8.86480E-04 8.54663E-04 2.41158E-03-5.00243E-05-1.00014E-04 5.80822E-04
 -1       123 3.86135E-04 4.82272E-04 8.83484E-04 7.31952E-05-4.23093E-04 2.24862E-04
 -1       124 5.81991E-05 9.59812E-05 1.01570E-04 4.99270E-07-1.59272E-04 2.96058E-05
 -1       125 1.38756E-05 1.38753E-05 3.23762E-05 2.49950E-11 8.53287E-05 1.02123E-05
 -1       126 2.01987E-04 2.01986E-04 4.71303E-04-1.57325E-10 3.02003E-04 1.67113E-04
 -1       127 9.13918E-04 9.13919E-04 2.13247E-03-9.08719E-10 3.33717E-04 5.11247E-04
 -1       128 7.71042E-04 7.71043E-04 1.79909E-03 7.85276E-10-2.96020E-04 4.58463E-04
 -1       129 2.02393E-04 2.02391E-04 4.72249E-04 2.17647E-10-2.95888E-04 1.68445E-04
 -1       130 1.36865E-05 1.36862E-05 3.19351E-05-3.38331E-11-8.79972E-05 9.65377E-06
 -1       131-6.92133E-05 1.62866E-04-1.54507E-05-7.19858E-05-4.73833E-05-3.18010E-05
 -1       132-4.18482E-06 1.20773E-04 1.60280E-06 1.47621E-05 1.36968E-06-4.25216E-06
 -1       133-1.09557E-04 3.90046E-05 2.17439E-04-3.88354E-04-4.35002E-04-5.91887E-06
 -1       134-3.63872E-05 1.30550E-04 3.55924E-05-2.16608E-05-2.93059E-05-6.83230E-06
 -1       135-5.14742E-07 6.06467E-05 3.92621E-06-5.10785E-07-3.60935E-06 4.75736E-07
 -1       136 7.37708E-07 1.19921E-04-2.19504E-06-1.90931E-05-1.84094E-06-5.46380E-06
 -1       137-8.85349E-05 1.94161E-04-3.13624E-05 5.92369E-05 4.50510E-05-4.40511E-05
 -1       138-2.95038E-06 5.89101E-05 1.30363E-06 6.49915E-07 1.70952E-06 1.50684E-06
 -1       139-4.19166E-05 1.43642E-04 2.92059E-05 8.99600E-06 2.55995E-05-1.01347E-05
 -1       140-1.02214E-04 3.96445E-05 2.07221E-04 3.57483E-04 4.10557E-04-1.77855E-06
 -1       141-6.02364E-05-1.89905E-04 1.49643E-03 1.88279E-06-5.02595E-05 4.21972E-04
 -1       142 7.58448E-06-4.03225E-06 1.06231E-04-3.43289E-05-1.43218E-04 1.32063E-05
 -1       143-1.01127E-06-8.86523E-04-4.07626E-04-1.03917E-05 6.05928E-04-1.02786E-04
 -1       144 1.29432E-06 1.45233E-05-9.87351E-06-4.29479E-06-4.14332E-05 3.86968E-06
 -1       145-3.83039E-04-4.04861E-04-7.83096E-03 3.00930E-05 1.02237E-03-1.67122E-03
 -1       146-2.87677E-03-8.72687E-04-1.15552E-02 1.65837E-04-7.26281E-04-3.69360E-03
 -1       147-1.95443E-03-8.90655E-04-1.21787E-02-2.14306E-04 7.14573E-04-3.57123E-03
 -1       148-6.09697E-04-4.34092E-04-1.11923E-02-1.83472E-04-1.29699E-03-2.62235E-03
 -1       149-2.30159E-03-7.86011E-04-1.16827E-02 9.15698E-05 2.52079E-04-4.00716E-03
 -1       150-5.40742E-04-4.69420E-04-1.14703E-02 8.61020E-05 1.13614E-03-2.60799E-03
 -1       151-1.88502E-04-8.52546E-04-7.87278E-03 2.50973E-05-1.66920E-03-1.20913E-03
 -1       152 7.47096E-06-6.62081E-06 1.04141E-04 3.32866E-05 1.41471E-04 1.27208E-05
 -1       153 1.19816E-06 1.32350E-05-1.26975E-05 4.31562E-06 4.60147E-05 3.38644E-06
 -1       154-1.60736E-05-8.91626E-04-3.99103E-04 2.84957E-06-5.96905E-04-9.36143E-05
 -1       155 1.29225E-04 2.73687E-04 1.56929E-03-4.28033E-04-4.06829E-04 1.00644E-03
 -1       156-2.91576E-04 3.26287E-04 1.35947E-03-2.82551E-04-3.07146E-04 6.95730E-04
 -1       157 1.10453E-04 1.74094E-04 1.62263E-03-3.65555E-04-4.06205E-04 7.74853E-04
 -1       158 1.73563E-04 5.52707E-04 1.86355E-03-4.06593E-04-4.55574E-04 1.00828E-03
 -1       159-6.10272E-04 6.77718E-05 1.96439E-04-2.35774E-04-1.57098E-04 6.58341E-05
 -1       160-9.13320E-04-4.65429E-04-1.23410E-03-5.22048E-07 5.80654E-05-8.67171E-04
 -1       161-6.12181E-04-1.31352E-03-2.79858E-03 3.11889E-04 9.80784E-04-9.59579E-04
 -1       162-5.57254E-04-1.24342E-03-2.69028E-03-3.33311E-04-9.58862E-04-9.98571E-04
 -1       163-8.18562E-04-4.46589E-04-1.18612E-03-2.35540E-05-4.95913E-05-9.00808E-04
 -1       164 1.63775E-04 4.78405E-04 1.59630E-03 5.59023E-04 5.07730E-04 9.97442E-04
 -1       165-3.17828E-04 2.97328E-04 1.44381E-03 3.13663E-04 3.23622E-04 6.81707E-04
 -1       166 2.93493E-04 4.92830E-04 1.78228E-03 5.70703E-04 6.02590E-04 8.45836E-04
 -1       167 2.79870E-04 6.16517E-04 1.94108E-03 5.51361E-04 5.70883E-04 9.82838E-04
 -1       168-6.96027E-04 4.48707E-06 2.39177E-04 2.35867E-04 9.94147E-05 5.41899E-05
 -1       169 5.94063E-03 5.22449E-04-1.83154E-04 1.05871E-03 4.70829E-04 1.39754E-03
 -1       170 5.07978E-03 3.43812E-04-4.89572E-04 9.68583E-04 5.48138E-04 1.04294E-03
 -1       171 7.18089E-03 9.99364E-04 6.74312E-04 1.44285E-03 5.50979E-04 1.82589E-03
 -1       172 5.67064E-03-4.27241E-04-2.30497E-04 6.04028E-04 1.67383E-04 1.51121E-04
 -1       173 2.31547E-03 2.63605E-04 6.91488E-03 2.10015E-04 9.13820E-05 4.16375E-03
 -1       174 6.64190E-03 5.27679E-05 1.86603E-03-2.91249E-05 1.00333E-04 3.80662E-03
 -1       175 8.67489E-04 2.77557E-04 6.53811E-03 6.27050E-05 3.65073E-05 1.66670E-03
 -1       176 4.80823E-03 4.80541E-06 4.65325E-03 1.99391E-05 9.74196E-06 4.32769E-03
 -1       177 6.66409E-03-1.20723E-04 4.92735E-04 2.87596E-04 8.22150E-05 1.71558E-03
 -1       178-4.18905E-04 3.93768E-04 4.83388E-03-2.46308E-04 5.78574E-04-1.25415E-04
 -1       179 9.51552E-04 1.19828E-03 4.53180E-03 5.23859E-04 9.14476E-04 4.39970E-03
 -1       180 9.09746E-03 1.52150E-03 1.87840E-03 1.68808E-03 4.78618E-04 4.34900E-03
 -1       181-1.70320E-03 1.28806E-05 1.93070E-03-2.94414E-05 9.59310E-04 1.71176E-03
 -1       182 4.13390E-03 9.14618E-04 2.56455E-03 9.54859E-04 6.31430E-04 4.06709E-03
 -1       183 1.05646E-02 1.72705E-03 1.40515E-03 2.12008E-03 2.23882E-04 2.64187E-03
 -1       184 6.99150E-03 5.89189E-04-2.61328E-04-1.13811E-03-3.79788E-04 1.03602E-03
 -1       185 7.18939E-03 8.91619E-04 3.97166E-06-1.38034E-03-4.44202E-04 1.20861E-03
 -1       186 5.66953E-03 2.86780E-04-5.94609E-04-9.62046E-04-3.98041E-04 5.89798E-04
 -1       187 1.16040E-03 6.42371E-04 3.35451E-03-4.41974E-04-8.68885E-04 3.77555E-03
 -1       188 9.12427E-03 1.36500E-03 1.35392E-03-1.38238E-03-4.00640E-04 4.13559E-03
 -1       189-1.12483E-03 9.31259E-05 1.93096E-03 7.03257E-05-9.66771E-04 1.53842E-03
 -1       190 4.66690E-03 7.68723E-04 2.06652E-03-7.34667E-04-5.46472E-04 3.96576E-03
 -1       191 1.06263E-02 1.48521E-03 1.03773E-03-1.92152E-03-1.55625E-04 2.57910E-03
 -1       192-4.10092E-04 3.22883E-04 4.83193E-03 2.53891E-04-5.39929E-04 4.44470E-05
 -1       193 2.28529E-03 1.89053E-04 6.96342E-03-1.45094E-04-5.23869E-05 4.16862E-03
 -1       194 6.66701E-03 8.91719E-05 1.86123E-03 1.28970E-05-6.62484E-05 3.82931E-03
 -1       195 1.05970E-03 2.30669E-04 6.57247E-03 5.20209E-05-3.57639E-05 1.74607E-03
 -1       196 4.83488E-03 8.46445E-05 4.74402E-03 4.03114E-05 2.24633E-05 4.32481E-03
 -1       197 6.54096E-03-2.41733E-04 4.05465E-04-3.42274E-04 3.02363E-06 1.75136E-03
 -1       198 5.82383E-03-4.07840E-04-8.68685E-05-7.58559E-04-2.96388E-04-1.19870E-04
 -1       199-5.09519E-05-1.55754E-04-7.19258E-04 3.96593E-05 1.02655E-04 1.67009E-05
 -1       200 4.75693E-04-1.33878E-04-1.95091E-04 2.58060E-05 1.11977E-04-1.92391E-04
 -1       201 1.24467E-03 1.29073E-04-2.76301E-04 4.02857E-04-6.42382E-06 3.41999E-05
 -1       202 1.91981E-03 1.97051E-04-2.25182E-04 1.09621E-03 2.56992E-04 2.06639E-04
 -1       203 2.07027E-03-1.24792E-03-1.41984E-05 8.26903E-05-1.03444E-05 5.52144E-04
 -1       204 1.20875E-03 4.25655E-04-1.33826E-04-1.20756E-03-4.64404E-04 2.26758E-04
 -1       205 1.47067E-03-1.36854E-05-2.98297E-04-4.10774E-04-4.07751E-05 1.67666E-05
 -1       206 4.55639E-04-1.08437E-04-2.00428E-04-2.89324E-05-9.54566E-05-1.92254E-04
 -1       207-4.61387E-05-1.43349E-04-7.22272E-04-3.14760E-05-1.15111E-04 1.36772E-05
 -1       208-7.33106E-05-2.30758E-04-6.43581E-04 4.25545E-05 3.17482E-05 1.61045E-05
 -1       209 1.13074E-04-1.63076E-04-5.77332E-04 3.96719E-05 1.09083E-04-3.81774E-05
 -1       210 9.91242E-04 5.65298E-05 7.85593E-05 2.62420E-04 9.99158E-05 9.62415E-07
 -1       211 1.99256E-03 2.65563E-04-5.22640E-04 7.45144E-04 8.21923E-05-2.39626E-05
 -1       212 1.31236E-03-7.88800E-04-6.16704E-05 1.07929E-03 9.34212E-05 1.78029E-04
 -1       213 2.30496E-03-2.62668E-04 7.61681E-05-9.99208E-04-2.72993E-04 1.60196E-04
 -1       214 1.39576E-03 3.64086E-04-1.05298E-04-9.52919E-04-2.80437E-04 3.09379E-04
 -1       215 9.66159E-04-4.44883E-05-1.67438E-05-1.98878E-04-4.93537E-05-2.22371E-05
 -1       216 1.64916E-04-1.35926E-04-5.52541E-04-4.05108E-05-1.16941E-04-4.76207E-05
 -1       217-7.97038E-05-2.28226E-04-6.42714E-04-4.51068E-05-2.54865E-05 1.68128E-05
 -1       218 1.15989E-05 1.23882E-05-3.00319E-04 1.09023E-05-3.06095E-06-2.08815E-05
 -1       219-1.18752E-04-1.60976E-04-4.70115E-04 6.78752E-06 1.94130E-06-5.40689E-07
 -1       220 1.26681E-04 1.77168E-04-1.09663E-04 2.86807E-06-4.24472E-06-3.43853E-06
 -1       221 2.11291E-05 1.52054E-04 3.91252E-05-3.44688E-05 1.20067E-04-9.41037E-06
 -1       222-3.98152E-04 9.95689E-05 4.13273E-05 2.13355E-05 1.02787E-04-7.62738E-05
 -1       223-9.21332E-04-1.69506E-04-6.09755E-05-4.27986E-04-3.27335E-05-6.57575E-05
 -1       224-3.06415E-03-3.84653E-04-1.04847E-04-1.89692E-03 1.63202E-04 2.50214E-04
 -1       225-7.08008E-03-2.72139E-04-8.45308E-04 1.73979E-05-2.00123E-05 1.32320E-03
 -1       226-1.96358E-03-6.29222E-04-5.91854E-05 1.99472E-03-4.52198E-04 4.20048E-04
 -1       227-1.04447E-03-1.48258E-04-3.05798E-05 4.66109E-04 5.27105E-05-2.79021E-05
 -1       228-3.81047E-04 1.01250E-04 4.91284E-05-2.39627E-05-9.65680E-05-9.15045E-05
 -1       229 4.00807E-05 1.46415E-04 4.86266E-05 4.35687E-05-1.19546E-04 7.59417E-08
 -1       230 5.05772E-05 2.41303E-04 4.68799E-05-3.84029E-05 3.22491E-05-6.43410E-06
 -1       231-1.73377E-04 9.39235E-05 4.77118E-06-3.98430E-05 9.84038E-05-1.94550E-05
 -1       232-7.40538E-04-1.70126E-05 4.38209E-05-2.03228E-04 8.93539E-05-1.42254E-06
 -1       233-1.85911E-03-3.10227E-04-6.10138E-05-8.70557E-04 1.55893E-04-2.46169E-05
 -1       234-6.34877E-03-1.30602E-03-2.41212E-03-1.56813E-03 4.19816E-05-3.01160E-04
 -1       235-6.56572E-03-1.78661E-03-2.43402E-03 1.58306E-03-1.61233E-04-5.56868E-04
 -1       236-8.03919E-04-1.79139E-04 7.00641E-06 1.10084E-03-2.71787E-04 4.79849E-04
 -1       237-6.90020E-04 5.29108E-05 1.02826E-04 1.74190E-04-4.32772E-05-2.05660E-05
 -1       238-1.44395E-04 9.72885E-05 1.96700E-05 1.85350E-05-1.05203E-04-2.29263E-05
 -1       239 7.42124E-05 2.53931E-04 5.67019E-05 3.04600E-05-4.28183E-05 1.30622E-05
 -1       240-1.15964E-02-3.05844E-03-5.96566E-03-1.84603E-04 9.64288E-05-4.04033E-03
 -1       241-1.27471E-02-3.38224E-03-6.56671E-03 6.66459E-05 1.56782E-05-4.53113E-03
 -1       242-1.14827E-02-2.01563E-03-1.93849E-03-1.29300E-03 1.41068E-04-1.77813E-03
 -1       243-1.23266E-02-4.11246E-03-7.80881E-03-1.35117E-04-7.25280E-05-3.50954E-03
 -1       244-1.19859E-02-2.24620E-03-3.21863E-03 1.14806E-03-3.67470E-04-2.78723E-03
 -1       245-3.98371E-03 1.07055E-05 5.37019E-04-7.73001E-04 1.18503E-04-8.28054E-04
 -1       246-3.76066E-03-3.01798E-06 4.35403E-04-6.09015E-04 6.47807E-05-7.53599E-04
 -1       247-4.25834E-03 4.17905E-05 7.45880E-04-9.14128E-04 1.21825E-04-8.47023E-04
 -1       248-4.07235E-05-6.67505E-05-7.04935E-04-2.36217E-06-2.32678E-04-1.40743E-03
 -1       249 3.52824E-03-2.77472E-05-9.92785E-04 5.18318E-04 1.77292E-04 2.95691E-05
 -1       250 3.35399E-03 2.48379E-05-9.80357E-04 3.89830E-04 1.36817E-04-9.49280E-05
 -1       251 3.73605E-03-4.93355E-05-1.06016E-03 6.13760E-04 2.41839E-04 1.66866E-04
 -1       252 9.81777E-03 2.34093E-03 3.06628E-03 2.15807E-03 1.16727E-03 4.05571E-03
 -1       253 1.24955E-02 2.05509E-03 1.21803E-03 3.14461E-05 3.05736E-05 2.50551E-03
 -1       254 1.04504E-02 2.73652E-03 3.85970E-03 1.71868E-03 1.27814E-03 5.70592E-03
 -1       255 1.20268E-02 3.01616E-03 4.24907E-03-1.36180E-03-6.37518E-04 5.85526E-03
 -1       256 8.49734E-03 1.54271E-03 1.95530E-03-1.58206E-03-6.99579E-04 3.77754E-03
 -1       257 4.03633E-03-3.85101E-05-1.14318E-03-4.95594E-04-1.63180E-04-4.44702E-04
 -1       258 4.27305E-03-7.01436E-05-1.19071E-03-5.63519E-04-2.19214E-04-3.45776E-04
 -1       259 3.87793E-03 1.75639E-05-1.11403E-03-4.01792E-04-1.14972E-04-5.10616E-04
 -1       260 1.99972E-04-1.08106E-04-6.08283E-04 5.12761E-06 3.47111E-04-1.41770E-03
 -1       261-4.60887E-03-1.52877E-04 4.69453E-04 9.96319E-04-9.42721E-05-7.65182E-04
 -1       262-5.20485E-03-1.84911E-04 5.75529E-04 1.33340E-03-4.27689E-05-8.61732E-04
 -1       263-4.22806E-03-7.86003E-05 3.78923E-04 6.86956E-04-6.06828E-05-6.56327E-04
 -1       264 5.16317E-03 8.47060E-05 3.57561E-05 2.08004E-04 1.83811E-05-2.41854E-04
 -1       265-6.07584E-03 2.80576E-04 1.62907E-05-2.96213E-04-7.90846E-05-1.37728E-03
 -1       266-8.91543E-03 4.23439E-04 4.56574E-04-1.04073E-03-3.89987E-04-1.75861E-03
 -1       267 5.21059E-03 5.90990E-05 6.20753E-05-3.49172E-04-6.54598E-05-4.52283E-04
 -1       268 9.58797E-04-3.65653E-05 1.19686E-03-3.32545E-05 1.60203E-05 1.08363E-03
 -1       269 2.50005E-03-2.84899E-05 1.34362E-03-3.81090E-06-8.31706E-06 1.83944E-03
 -1       270 5.01118E-03-2.42609E-05 1.59454E-03-4.62532E-05 2.54304E-05 2.76430E-03
 -1       271 9.46970E-03-1.40091E-04 2.14834E-03-6.35024E-05 6.39673E-05 4.18678E-03
 -1       272 1.58574E-02-1.58382E-03-1.14948E-03-6.16271E-05-1.70114E-04 2.80288E-03
 -1       273 4.71188E-04-4.71153E-05 1.43980E-03-1.57196E-05-7.40472E-05 9.04756E-04
 -1       274 1.50851E-03-1.05779E-04 1.13470E-03-3.44862E-05-1.13191E-05 1.38505E-03
 -1       275 3.41513E-03-1.27972E-04 1.25456E-03-7.67903E-05 1.43224E-05 2.21948E-03
 -1       276 6.91772E-03-1.34137E-04 1.69445E-03-1.40583E-04 1.51657E-04 3.32814E-03
 -1       277 1.26882E-02-1.05845E-04 1.64250E-03-2.02310E-05 1.07131E-05 3.92605E-03
 -1       278 1.75957E-02 4.83434E-05-9.23918E-04 6.45957E-04-1.71129E-04 1.60738E-03
 -1       279 7.63282E-04-9.67833E-05 1.24736E-03 5.24380E-05 8.86480E-05 1.06815E-03
 -1       280 2.31511E-03-2.24112E-05 1.33816E-03 2.05809E-05 7.06056E-06 1.78666E-03
 -1       281 4.75146E-03 4.88019E-05 1.61845E-03 3.18712E-05 9.27301E-06 2.93112E-03
 -1       282 9.43251E-03-3.98519E-05 1.81653E-03 9.59741E-05-6.18922E-05 4.00318E-03
 -1       283 1.56410E-02-5.00085E-04 1.19648E-04-3.44052E-04 4.88645E-05 3.48677E-03
 -1       284 4.00256E-04-1.08850E-04 1.56259E-03 1.85781E-04 2.57936E-04 8.77940E-04
 -1       285 1.49271E-03 2.09419E-05 1.25249E-03 1.19130E-05 3.68925E-05 1.40295E-03
 -1       286 3.38235E-03-1.40698E-05 1.44316E-03 2.42238E-05 1.83553E-05 2.34642E-03
 -1       287 6.65461E-03-5.93506E-07 1.59033E-03 9.47130E-05 1.09357E-04 3.36828E-03
 -1       288 1.30313E-02 2.16068E-04 1.66169E-03 6.64456E-06-1.46550E-05 4.07660E-03
 -1       289 1.71639E-02 3.59120E-05-8.73810E-04-5.57494E-04 1.29878E-04 1.40126E-03
 -1       290-8.73140E-03-2.08024E-04-9.00780E-03-3.60153E-04-3.71266E-04-8.90248E-03
 -1       291-3.88254E-03-2.69805E-04-1.19345E-02-5.88875E-05 2.57995E-04-5.78768E-03
 -1       292-1.08757E-02-3.35823E-04-4.19364E-03-8.60800E-05-5.91305E-05-5.99063E-03
 -1       293-8.76056E-03-1.61631E-04-8.84501E-03 2.31389E-04 2.98322E-04-8.75416E-03
 -1       294-3.74207E-03-2.05001E-04-1.16740E-02 2.03630E-07-2.70626E-04-5.68622E-03
 -1       295-1.06609E-02-2.63224E-04-3.99275E-03-2.63468E-05 3.31827E-06-5.91285E-03
 -1       296-8.64985E-03 3.25318E-04 5.43737E-04 1.49646E-03 3.32961E-04-1.99820E-03
 -1       297-6.49971E-03 6.30430E-05-2.48125E-05 2.44979E-04 5.33500E-05-1.55099E-03
 -1       298-1.90346E-04 9.21621E-05 2.12097E-03-2.46984E-04 9.58801E-05-1.13391E-03
 -1       299-2.20042E-04 8.95414E-05 2.02987E-03 2.80863E-04-1.99533E-05-1.18028E-03
 -1       300-1.62208E-03-2.55246E-04-2.94311E-04-4.71199E-04 2.28527E-04-3.94350E-04
 -1       301-1.53731E-03-1.79020E-04-4.00674E-05 3.39732E-04-2.07713E-04-4.68168E-04
 -1       302 2.83286E-06 2.03638E-06 7.33474E-06 6.28425E-08-1.17941E-05-1.53432E-05
 -1       303 4.42158E-08-7.32029E-07 5.57844E-06 4.36126E-07-1.59249E-05-1.19938E-05
 -1       304 2.08871E-06 7.92432E-06-7.21577E-07 4.00229E-07-2.05013E-05-5.59667E-06
 -1       305 9.77489E-07 6.08313E-06-9.96401E-07-3.60998E-07 1.89839E-05-5.43241E-06
 -1       306 3.86958E-07 6.28914E-07 6.92560E-06-9.82268E-08 1.11714E-05-1.46737E-05
 -1       307-1.49792E-06-1.10040E-06 5.13635E-06 1.08529E-07 1.42673E-05-1.05696E-05
 -1       308-3.69388E-06-9.69726E-06-2.95207E-05 1.56702E-06 3.76002E-05-1.37681E-05
 -1       309-2.41631E-06-6.34946E-06-2.71440E-05-5.58724E-07 3.53336E-05-2.07498E-05
 -1       310-1.02220E-06-5.48384E-06-4.46536E-05-2.69648E-06 1.94146E-05-1.82833E-05
 -1       311-1.01452E-05-2.47793E-05-5.35930E-05 5.46163E-07-3.02983E-05-2.10260E-05
 -1       312-9.78614E-06-3.10828E-05-3.41161E-05 2.37333E-06-4.04021E-05-1.11323E-05
 -1       313 2.52162E-06-1.04108E-05-2.67197E-05 1.06897E-06-3.26920E-05-1.50717E-05
 -1       314-1.14182E-05-1.11123E-05-6.25068E-06 5.87356E-06 1.16958E-05-2.93789E-05
 -1       315-1.08749E-05-3.10794E-06-6.28673E-06 1.79118E-06 7.75696E-06-2.57746E-05
 -1       316 1.04171E-05-5.44497E-06-1.40276E-05 4.54214E-06 6.42979E-06-2.79721E-05
 -1       317-6.30472E-06-6.16444E-07 2.41025E-06-3.67426E-07-9.14953E-07-2.55297E-05
 -1       318 5.55425E-07 2.70833E-06 2.09779E-05-4.58605E-07-1.11520E-05-2.66475E-05
 -1       319-2.19642E-06 9.16846E-07-3.65298E-06-5.36221E-07 1.49738E-06-1.70012E-05
 -1       320-8.47518E-06 2.20332E-06 1.15921E-06 7.78867E-07-1.71745E-06-1.59020E-05
 -1       321-3.75186E-06-2.54440E-06-2.66825E-06 4.66465E-07 3.72435E-06-3.21667E-05
 -1       322-2.69799E-05-3.52406E-05-9.86039E-05 2.47449E-06 5.39008E-05-2.67719E-05
 -1       323 1.35691E-05-9.15958E-06 1.38981E-05 2.09853E-06-1.26572E-07-2.03670E-05
 -1       324 9.07201E-06-3.99838E-06 4.82088E-06 3.70395E-06 3.91025E-06-1.72813E-05
 -1       325-3.88804E-05-4.52608E-05-1.08934E-04 2.81417E-06 4.86333E-05-3.71285E-05
 -1       326-6.72829E-06-4.60149E-07-1.18682E-06 1.39071E-06 1.33865E-06-1.59861E-05
 -1       327-7.92480E-06-1.31624E-06-1.62292E-06 2.68403E-06 2.18675E-06-1.59567E-05
 -1       328-6.29440E-06 1.14749E-06 5.73288E-07-8.23712E-07 2.08593E-06-2.66519E-05
 -1       329-2.19151E-06-8.66077E-06 1.63961E-06 4.67801E-06 1.01327E-06-2.07290E-05
 -1       330-1.32267E-05-6.76955E-06-3.51135E-06 2.37762E-06 2.56619E-06-1.61030E-05
 -1       331-1.02070E-05-8.59612E-06-4.52848E-06 2.87319E-06 1.18352E-05-2.56682E-05
 -1       332-5.84052E-07-7.12123E-06 6.89868E-07 2.77986E-06 9.09440E-06-3.14667E-05
 -1       333-1.98101E-05-1.27527E-05-4.04286E-05 2.20764E-06 2.30745E-05-3.65872E-05
 -1       334-1.25155E-05-7.39998E-06-1.79221E-05 2.19728E-06 8.11120E-06-3.18174E-05
 -1       335-3.89078E-05-3.20725E-05-8.50602E-05 3.98627E-06 4.58090E-05-4.37889E-05
 -1       336-2.81319E-05-2.75787E-05-5.57785E-05 5.23517E-06 3.07123E-05-3.65718E-05
 -1       337-1.11062E-05-1.21184E-06-8.63239E-06-3.19100E-07-5.13525E-06-2.60419E-05
 -1       338-1.22908E-05-1.27878E-05-1.52722E-05-6.99966E-06-1.65607E-05-2.89741E-05
 -1       339 8.57108E-06-8.33741E-06-1.22366E-05-5.48550E-06-9.32825E-06-2.63124E-05
 -1       340-7.54555E-06 7.38674E-07 2.06752E-06 4.31211E-09 1.85269E-06-2.31776E-05
 -1       341 6.73836E-07 5.93304E-06 2.06179E-05-1.19786E-06 1.36855E-05-2.55477E-05
 -1       342-4.01021E-06 1.66379E-06-2.69419E-06 3.18317E-07-1.41521E-06-1.65590E-05
 -1       343-8.19165E-06 3.00846E-06 1.25194E-06-4.73568E-07 2.08209E-06-1.54076E-05
 -1       344-3.25482E-06 6.27332E-07 2.30097E-06-1.22411E-06 1.91850E-06-3.10046E-05
 -1       345 1.47011E-05 1.64890E-06 1.35063E-05-9.99251E-07 1.22136E-05-1.89360E-05
 -1       346-3.64638E-05-3.61018E-05-1.12475E-04-4.14925E-06-5.07481E-05-3.13506E-05
 -1       347 9.11543E-06-8.08132E-06 4.80169E-06-1.23535E-06-3.89197E-06-1.71679E-05
 -1       348-3.60537E-05-3.93813E-05-1.03229E-04-3.78107E-06-4.53429E-05-3.72526E-05
 -1       349-2.24908E-05-1.54750E-05-4.36481E-05-2.15980E-06-2.13033E-05-3.66071E-05
 -1       350-9.46296E-06-2.15709E-06-1.42669E-05-1.65171E-06-4.41815E-06-3.38836E-05
 -1       351-8.09283E-06 3.18611E-07-2.61441E-06 5.53196E-07 7.35430E-07-2.59066E-05
 -1       352-3.96753E-05-3.98289E-05-8.82239E-05-6.65957E-06-4.88334E-05-4.05177E-05
 -1       353-2.87649E-05-2.91602E-05-6.16780E-05-4.92619E-06-3.07700E-05-3.85538E-05
 -1       354-1.24645E-05-7.64817E-06-1.18313E-05-1.35061E-06-9.84115E-06-2.63473E-05
 -1       355-4.33456E-06-1.69470E-05-1.09905E-05-6.67733E-06-1.54143E-05-3.14863E-05
 -1       356-9.06949E-06-2.35983E-06-1.79504E-06-1.85530E-06-1.62107E-06-1.65969E-05
 -1       357-7.89473E-06 1.44168E-06-8.66878E-07-1.45521E-06-4.96829E-07-1.64137E-05
 -1       358-1.23121E-05-2.09317E-06-2.96424E-06-1.98343E-06-4.07243E-06-1.75477E-05
 -1       359-6.12430E-07-4.95130E-06 7.71396E-07-5.12465E-06-2.30706E-06-1.82261E-05
 -1       360-6.37005E-05 4.26742E-05-2.08677E-05 4.41611E-05-3.60737E-05-4.16753E-05
 -1       361-6.35696E-05 8.39820E-06-4.83162E-05-2.10376E-05-2.64882E-05-7.53277E-05
 -1       362-5.36140E-05-1.44584E-04-6.02047E-05 3.52543E-05 1.88091E-04-5.01387E-05
 -1       363-3.00130E-06 8.45222E-06-6.36601E-06-1.22803E-06 1.89307E-05-7.79087E-06
 -1       364-1.74018E-06 3.68927E-06-2.95216E-06 2.38145E-06-1.28296E-05-1.40439E-05
 -1       365-3.35225E-05-9.17394E-05-2.04156E-05-2.56325E-05-1.45685E-04-3.60006E-05
 -1       366-1.46368E-04-1.24495E-04-1.97335E-04 1.69842E-05 9.74745E-06-2.41450E-04
 -1       367 3.77200E-04 2.45913E-04 1.17960E-03 1.05963E-05 1.03797E-06 3.67729E-04
 -1       368 3.60013E-06 1.18277E-05 7.18333E-06-2.81318E-07 3.59763E-05-1.66775E-05
 -1       369 2.91575E-06 3.46776E-06 7.48651E-06-2.11301E-07-3.78877E-05-1.77389E-05
 -1       370-1.50041E-05-6.62475E-05-4.38359E-05 1.09129E-06-1.30389E-04-2.69641E-05
 -1       371-1.81439E-05-6.57357E-05-4.00793E-05 8.22359E-07 1.44066E-04-2.72160E-05
 -1       372-1.78565E-05-9.76500E-06-9.96342E-06 9.71429E-06 3.64119E-05-2.47100E-05
 -1       373-1.36837E-05-1.94426E-05-1.21852E-05-1.41961E-05-7.18760E-05-3.96408E-05
 -1       374-2.38799E-04-2.18202E-04-5.39609E-04-8.25768E-05-3.36587E-04-2.14345E-04
 -1       375 3.28652E-05 8.60190E-05 2.63173E-06 1.00665E-05-7.16124E-05 4.85451E-05
 -1       376-3.19730E-04-2.92754E-04-7.73779E-04 5.03924E-05 4.07548E-04-2.04849E-04
 -1       377 2.87932E-05 9.56961E-05 1.54832E-05-9.09048E-06 8.58337E-05 4.54002E-05
 -1       378-5.66417E-05-1.58082E-04-1.11979E-04 1.49536E-05 2.47340E-04-4.81042E-05
 -1       379 6.71859E-06 2.52765E-05 8.41792E-06 8.42207E-06-5.76084E-05-8.14970E-06
 -1       380-4.49029E-05-1.41285E-04-8.98627E-05-1.04006E-05-2.32578E-04-4.41592E-05
 -1       381 7.18466E-06 1.36290E-05 1.45086E-05-6.58746E-06 6.01292E-05-3.45865E-06
 -1       382-1.59508E-05-2.99440E-05-1.48814E-05 6.28431E-06 9.26082E-05-4.08112E-05
 -1       383-6.33932E-06-6.42598E-06-1.35774E-05-4.84362E-07-1.40542E-05-2.21719E-05
 -1       384 1.81586E-06 5.30299E-06 6.59823E-06 2.04249E-06-1.79939E-05-2.38812E-05
 -1       385-2.26402E-08 1.65844E-06-1.53600E-06-4.85801E-07 1.21784E-05-2.15045E-05
 -1       386-2.02115E-05-2.99456E-05-3.49754E-05 2.59293E-06 1.11812E-04-3.76537E-05
 -1       387-2.93248E-05-2.93248E-05-6.84244E-05 2.89383E-11-1.01808E-04-3.45715E-05
 -1       388 2.16679E-04 2.18638E-04 5.26443E-04 4.73607E-05-2.07491E-04 3.01593E-04
 -1       389-6.25087E-04-5.83193E-04-1.61479E-03-2.77053E-05-1.59830E-04-2.68971E-04
 -1       390-6.42876E-04-6.39809E-04-1.84361E-03-6.57547E-06 1.24220E-04-2.44869E-04
 -1       391 3.43233E-04 1.90593E-04 9.54622E-04 2.58405E-05 2.32939E-04 4.80127E-04
 -1       392 1.58230E-04 1.68345E-04 5.60651E-04 4.94428E-06-8.85074E-05 7.27277E-05
 -1       393-3.34042E-05-2.37374E-05-8.71285E-05 3.34307E-05 1.14774E-04-9.85852E-05
 -1       394-1.77200E-05 1.99551E-05-2.70487E-05-1.44625E-05 4.12141E-06-9.89410E-06
 -1       395-1.95852E-04-1.29196E-04-3.44630E-04 8.51121E-05 7.61545E-05-2.71635E-04
 -1       396 7.84741E-05 1.55522E-04 2.09758E-04-4.42694E-05 1.23404E-04 1.20033E-04
 -1       397 1.71236E-04 2.07815E-04 3.78198E-04 5.45208E-05-1.65963E-04 1.79452E-04
 -1       398-1.88581E-04-1.40219E-04-4.00664E-04-1.01020E-04-8.66484E-05-2.64501E-04
 -1       399 7.34826E-05 1.66448E-04 4.12362E-04-4.22341E-05 8.74326E-05 1.15864E-05
 -1       400 5.82833E-06 5.01767E-06 1.28947E-05-3.47574E-08-4.10854E-05-2.04701E-05
 -1       401 6.61941E-06 7.09053E-06 1.71018E-05-1.08545E-07-3.69030E-05-2.19807E-05
 -1       402-9.87552E-07-3.28644E-06-2.95201E-06-2.72899E-07-4.27241E-06-3.11458E-05
 -1       403 1.02697E-05 1.52020E-05 2.86805E-05-6.61183E-07-2.62989E-05-2.51910E-05
 -1       404 3.43983E-06 2.94934E-06 8.52594E-06 6.39006E-08-2.99980E-05-1.96530E-05
 -1       405 1.55409E-06 2.23121E-06 3.14415E-06-6.08283E-07-4.31831E-05-1.64106E-05
 -1       406 1.86513E-05 2.96857E-05 4.27826E-05-4.61108E-06-1.03580E-04 1.16721E-05
 -1       407 1.80725E-06 1.80700E-06 4.21685E-06-2.20012E-11-5.81182E-05-7.75180E-06
 -1       408-2.76899E-07 5.55949E-07 2.47491E-06 2.25615E-06-4.48462E-05-1.27030E-05
 -1       409 4.59910E-06 3.84726E-06 1.01058E-05 4.04721E-08 3.95833E-05-1.99297E-05
 -1       410 1.54598E-06 4.41817E-06 2.36129E-06 1.06881E-06 4.30076E-05-1.54513E-05
 -1       411 2.03533E-05 3.05924E-05 4.66015E-05 2.58841E-06 1.01167E-04 1.25715E-05
 -1       412 3.29171E-06 3.29148E-06 7.68059E-06 1.73162E-11 5.92319E-05-5.47942E-06
 -1       413 2.36585E-06 3.42405E-06 8.05072E-06-2.44154E-06 4.89384E-05-9.37864E-06
 -1       414 6.16655E-06 8.55509E-06 2.06025E-05-1.24559E-06 3.38820E-05-2.04657E-05
 -1       415 3.62663E-07 3.62644E-07 8.46156E-07 5.33844E-12 5.01496E-06-2.95503E-05
 -1       416 1.17044E-05 1.17043E-05 2.73101E-05 6.95391E-12 2.17891E-05-2.62810E-05
 -1       417 3.48042E-06 6.30587E-06 5.25653E-06 2.86569E-07 2.25164E-05-1.96979E-05
 -1       418-2.11350E-05-2.05231E-05-4.88141E-05-7.64956E-08 1.37173E-04-2.49094E-05
 -1       419-1.16782E-05-2.02962E-05-2.35296E-05-3.07843E-06 1.42346E-04-1.90480E-05
 -1       420-8.07180E-05-1.31893E-04-2.31743E-04-1.86405E-06 3.25626E-04-1.55295E-05
 -1       421-2.75711E-05-2.75705E-05-6.43324E-05-2.07314E-11 1.91019E-04-9.44413E-06
 -1       422 9.31463E-06-5.77546E-06-2.76012E-05 2.04017E-06 1.92825E-04-3.74984E-05
 -1       423-3.31422E-05-3.74963E-05-8.79916E-05 2.56990E-06 1.29568E-04-2.04880E-05
 -1       424-4.60978E-05-4.60978E-05-1.07561E-04-1.86932E-11 9.58029E-05-4.00340E-05
 -1       425-5.70110E-05-5.70109E-05-1.33025E-04-2.31739E-11 1.14307E-04-3.61743E-05
 -1       426-2.29173E-05-3.60784E-05-4.07495E-05 2.85706E-06 1.23374E-04-3.52766E-05
 -1       427-2.94535E-05-4.45278E-05-8.25398E-05-2.47009E-07-1.23224E-04-1.51455E-05
 -1       428-4.29723E-05-5.21684E-05-1.29455E-04-1.15256E-06-1.23750E-04-2.32397E-05
 -1       429-6.05878E-05-6.05878E-05-1.41371E-04 1.09571E-11-9.50141E-05-4.07390E-05
 -1       430-7.61001E-05-7.61002E-05-1.77567E-04 2.88386E-11-1.13204E-04-3.66368E-05
 -1       431-2.64420E-05-2.64420E-05-6.16980E-05 4.69194E-11-1.11387E-04-3.23032E-05
 -1       432-1.28375E-05-2.03326E-05-2.42532E-05 5.84853E-08-1.38319E-04-1.52374E-05
 -1       433-6.85642E-05-1.21055E-04-2.17553E-04 7.42270E-06-3.17477E-04-1.50764E-05
 -1       434-2.11390E-05-2.11384E-05-4.93243E-05 1.79765E-12-1.83046E-04-8.58106E-06
 -1       435 1.24788E-05-1.10786E-06-1.64544E-05-1.95340E-06-1.86335E-04-3.61976E-05
 -1       436-1.48484E-05-1.51280E-05-3.15582E-05 1.43076E-06 3.66757E-05-3.08246E-05
 -1       437-2.48708E-06-2.48711E-06-5.80325E-06-1.64261E-11 1.37572E-05-2.47371E-05
 -1       438 8.38060E-07 4.09283E-06-9.19516E-07 3.62433E-07 7.25717E-06-1.62252E-05
 -1       439-3.09276E-06-3.09279E-06-7.21651E-06-1.29518E-11-1.29700E-06-2.46380E-05
 -1       440-1.72710E-06 3.69633E-06-4.42397E-07 3.32356E-06-1.53888E-05-1.85554E-05
 -1       441-3.67272E-05-3.87068E-05-8.68953E-05 9.80972E-07 8.34929E-05-4.09154E-05
 -1       442-1.97331E-05-1.97331E-05-4.60439E-05-2.96270E-11 5.65832E-05-3.62626E-05
 -1       443-1.51439E-05-2.44467E-05-9.28584E-06 7.37197E-06 7.19451E-05-3.75305E-05
 -1       444-1.74977E-05-2.73317E-05-2.26977E-05 4.84361E-06 1.05415E-04-4.05252E-05
 -1       445-1.46884E-05-1.46885E-05-3.42731E-05 7.19233E-12-2.47907E-05-3.27544E-05
 -1       446-6.15214E-06-4.92928E-06-1.23423E-05-2.50982E-07-7.94596E-06-2.89980E-05
 -1       447-5.50291E-06-7.05021E-06-1.26037E-05-2.56536E-07-1.14179E-06-2.12360E-05
 -1       448-1.95369E-05-1.95369E-05-4.55862E-05 2.40819E-11-6.80199E-05-3.48160E-05
 -1       449-1.59946E-05-1.33176E-05-3.51322E-05-2.00485E-06-4.60883E-05-3.28238E-05
 -1       450-2.40162E-06-1.42766E-05-1.49056E-05-4.40059E-06-3.55405E-05-2.72048E-05
 -1       451-2.90931E-05-5.03731E-05-2.65004E-05-1.14532E-05-1.10170E-04-4.71341E-05
 -1       452-3.09774E-05-2.81603E-05-7.23718E-05-2.20219E-06-9.06218E-05-3.89148E-05
 -1       453-1.25635E-06-1.25625E-06-2.93142E-06 2.90379E-11-1.03548E-04-3.32912E-05
 -1       454-5.45049E-04-6.08418E-04-1.53202E-03-5.74043E-05-5.06377E-04-6.58332E-05
 -1       455-1.94060E-04-2.24841E-04-4.47424E-04 2.12903E-06-3.95235E-04-8.14700E-05
 -1       456-1.88892E-04-1.88890E-04-4.40748E-04 4.19340E-10-3.66596E-04-1.14773E-04
 -1       457-8.60012E-04-1.04659E-03-2.46815E-03-7.91345E-05-1.56173E-04-5.63659E-05
 -1       458-8.20938E-04-7.90255E-04-2.08893E-03 4.99897E-05-2.67872E-04-8.26690E-05
 -1       459-5.17761E-04-5.17761E-04-1.20811E-03 7.38227E-10-3.07802E-04-2.24457E-04
 -1       460-8.50538E-04-8.68220E-04-2.20798E-03-5.20156E-05 2.86276E-04-5.29164E-05
 -1       461-9.77624E-04-1.01529E-03-2.52835E-03 6.38758E-05 6.25036E-05-1.29828E-05
 -1       462-7.97793E-04-7.97793E-04-1.86151E-03-7.94836E-11-3.77334E-05-3.02081E-04
 -1       463-2.26705E-04-2.65747E-04-5.45119E-04-3.76553E-06 4.22275E-04-6.57449E-05
 -1       464-5.56097E-04-6.39487E-04-1.62950E-03 6.56078E-05 5.13427E-04-4.54644E-05
 -1       465-6.15700E-04-6.15700E-04-1.43663E-03-7.70020E-10 3.14509E-04-2.35788E-04
 -1       466-2.37815E-04-2.37813E-04-5.54901E-04-4.62384E-10 3.92156E-04-1.12745E-04
 -1       467 1.00395E-04 1.24851E-04 3.23589E-04-1.73394E-05 2.40338E-04 1.53873E-04
 -1       468 4.02150E-05 7.70883E-05 6.88264E-05-7.26821E-06 1.31312E-04 4.08363E-05
 -1       469 1.27216E-07 1.43675E-05 1.05546E-05-9.67509E-06 6.41393E-05 1.61383E-05
 -1       470 7.31822E-04 5.87463E-04 1.83047E-03-3.75106E-05 2.60125E-05 5.79451E-04
 -1       471 4.18336E-04 4.29964E-04 8.63580E-04-2.87256E-05 3.34022E-04 3.54837E-04
 -1       472 1.96441E-04 1.96441E-04 4.58363E-04-7.51023E-10 2.20016E-04 2.47537E-04
 -1       473 3.71328E-04 3.93248E-04 7.15703E-04 4.37539E-05-3.12012E-04 2.78989E-04
 -1       474 4.77253E-04 4.99030E-04 1.17721E-03 1.15498E-05-1.34860E-04 4.15445E-04
 -1       475 4.58969E-04 4.58970E-04 1.07092E-03 7.83693E-10-1.01474E-04 4.23140E-04
 -1       476 3.42723E-05 6.98616E-05 5.10659E-05 5.08048E-06-1.23315E-04 4.10889E-05
 -1       477 1.04087E-04 1.32706E-04 3.15556E-04 1.49538E-05-2.29161E-04 1.52223E-04
 -1       478 8.68514E-05 7.76579E-05 2.32258E-04 6.09201E-05-1.64746E-04 1.56042E-04
 -1       479-2.89712E-06 1.55699E-05 4.21951E-07 7.65562E-06-5.70891E-05 1.28053E-05
 -1       480-1.26725E-05-1.71153E-05-2.53619E-05 1.65907E-06-2.26865E-06 5.10947E-06
 -1       481-9.28241E-06-9.28295E-06-2.16599E-05-9.60578E-11 2.05878E-05-1.58343E-05
 -1       482 1.07987E-05 7.80832E-05 1.87499E-05-9.05478E-06-5.39627E-05 4.20435E-05
 -1       483-1.85380E-05 4.75685E-05-3.26206E-05-3.27426E-06 8.04297E-05-7.04710E-05
 -1       484-7.88943E-05-4.30778E-05-8.24381E-05 1.66467E-05 4.79195E-05-7.87042E-05
 -1       485 4.76297E-05 4.76287E-05 1.11135E-04 4.60660E-10-1.17306E-04 1.38684E-04
 -1       486 3.83448E-05 9.48355E-05 1.89701E-04 1.34308E-05-1.23098E-04 9.15284E-05
 -1       487-4.17317E-05 4.08030E-05 2.62814E-05 1.67050E-05-3.15666E-05-1.12569E-04
 -1       488-3.68902E-05 5.02670E-05 1.62926E-04 2.48944E-05-7.60706E-05-3.36060E-05
 -1       489-5.12036E-05-5.12051E-05-1.19478E-04-1.37112E-10 1.53574E-05-1.34177E-04
 -1       490 2.31959E-04 2.31958E-04 5.41235E-04 4.92528E-10-1.50104E-04 1.69460E-04
 -1       491-3.78805E-05-4.72983E-05-1.50764E-04 3.90448E-05 1.10971E-04-1.48114E-04
 -1       492-8.13801E-05-8.13801E-05-1.89888E-04 6.19311E-10-1.69660E-04-1.18979E-04
 -1       493-7.13738E-05-4.98603E-05-7.48582E-05-1.51625E-05-7.25647E-05-7.25293E-05
 -1       494-1.16376E-04-6.04007E-05-2.70890E-04-1.03919E-05-1.54447E-04-1.69762E-04
 -1       495-1.38124E-05-1.38127E-05-3.22296E-05 1.31316E-10-3.73897E-05-2.99372E-05
 -1       496 1.67169E-05 4.35624E-05-8.84096E-06-1.63004E-05-4.66161E-07-2.79613E-05
 -1       497-1.77981E-04-2.87653E-04-4.79044E-04-3.84340E-05-2.01222E-04-2.06673E-04
 -1       498-8.30627E-05-8.30643E-05-1.93816E-04 2.26605E-10-5.74983E-05-1.37318E-04
 -1       499-1.33116E-05 1.28950E-05 4.64029E-05 1.00864E-05 7.18678E-05 5.84304E-05
 -1       500 5.05177E-05 5.05167E-05 1.17873E-04-2.03992E-10 8.23026E-05 4.53592E-05
 -1       501 1.70498E-04 1.70496E-04 3.97825E-04-4.28043E-10 1.17317E-04 1.34903E-04
 -1       502-3.06975E-05 2.00423E-05 1.29503E-04-2.78859E-05 2.19893E-05-1.45776E-05
 -1       503-6.39575E-05 5.94308E-05-3.32906E-05-3.40889E-05 2.02383E-05-1.48058E-04
 -1       504-7.08662E-05-1.67453E-04-7.48267E-05 1.31252E-05 2.30418E-04-5.45194E-05
 -1       505-2.70516E-05-6.99141E-05-2.67878E-05 1.85566E-05 1.55459E-04-3.54961E-05
 -1       506-5.48711E-06-5.48683E-06-1.28034E-05-1.47547E-10 1.25936E-04-4.13114E-05
 -1       507-1.57601E-04-1.35554E-04-4.07874E-04 5.00792E-05 3.19541E-04-1.58845E-04
 -1       508-1.88892E-04-2.72529E-04-3.66851E-04-8.17696E-06 2.47821E-04-1.58857E-04
 -1       509-4.57312E-05-4.57310E-05-1.06707E-04-6.65076E-10 1.78681E-04-1.02364E-04
 -1       510-1.10962E-05-5.43275E-05-2.68226E-05 1.24956E-06 1.30329E-04-4.71081E-05
 -1       511-2.78040E-05-2.78039E-05-6.48768E-05-4.97416E-10 1.29490E-04-8.35220E-05
 -1       512-1.24986E-06-1.25000E-06-2.91634E-06 4.72792E-11 3.63159E-05-3.58497E-06
 -1       513-2.55421E-06 7.45592E-06-5.52977E-07-1.12090E-06 2.83000E-05-1.22900E-05
 -1       514-1.91489E-06-2.15152E-06-6.91229E-06-1.85469E-06 1.32889E-05-1.60629E-05
 -1       515 1.26966E-06-1.42942E-06-1.00360E-05 2.22404E-06 3.61549E-05 1.33454E-05
 -1       516 1.78515E-05 5.27906E-05-3.21302E-06 9.38829E-06 4.48752E-05 2.59082E-05
 -1       517-1.05773E-05 9.05653E-06-1.29333E-05-1.35679E-06 1.00865E-05-1.64895E-06
 -1       518-6.06252E-06-6.06261E-06-1.41461E-05 5.07792E-11-1.33313E-06-1.65310E-05
 -1       519-7.85290E-06-8.50740E-06-2.00161E-05 1.43236E-06-1.16491E-05-1.88361E-05
 -1       520 1.88218E-07 1.88106E-07 4.39152E-07-7.20461E-11-2.80941E-05-1.53849E-05
 -1       521-1.92569E-06-1.92582E-06-4.49327E-06-5.48981E-11-3.35252E-05-8.93140E-06
 -1       522-3.07998E-06-5.80920E-06-1.60185E-05 2.53115E-06-2.45921E-05 6.62119E-06
 -1       523-2.76044E-05-6.59271E-05-2.22675E-05-1.37840E-05-1.40190E-04-3.38080E-05
 -1       524-4.48706E-05-1.37964E-04-3.96785E-05 4.68026E-07-2.00975E-04-4.57607E-05
 -1       525-1.30957E-04-1.26910E-04-2.97900E-04-5.67766E-05-2.79025E-04-1.43453E-04
 -1       526-4.13574E-04-4.13575E-04-9.65005E-04-8.46531E-11-6.84906E-05-3.16453E-04
 -1       527-4.26843E-04-4.34344E-04-1.10441E-03-2.73515E-05 3.55101E-05-2.90697E-04
 -1       528-3.91635E-04-3.64819E-04-1.04211E-03-5.81304E-05-1.40815E-04-2.90168E-04
 -1       529-1.70005E-04-1.53818E-04-3.38868E-04-1.76876E-05-2.28171E-05-2.87851E-04
 -1       530-3.86235E-04-3.99586E-04-1.13275E-03 5.97152E-05 1.40048E-04-3.18388E-04
 -1       531-1.75468E-04-1.29752E-04-2.61254E-04 1.86049E-05 2.13138E-05-2.70367E-04
 -1       532 1.06066E-04 5.67155E-05 2.64728E-04-5.36585E-06-1.94105E-05-5.69904E-05
 -1       533 2.62951E-04 2.62950E-04 6.13545E-04-1.74117E-10 4.29546E-05 3.58783E-05
 -1       534 5.57673E-05 5.57653E-05 1.30116E-04-1.09941E-10 4.48675E-05-1.28018E-04
 -1       535 3.94705E-04 3.94705E-04 9.20973E-04 8.84605E-10-1.61172E-04 3.12602E-04
 -1       536 3.99724E-04 2.92844E-04 1.17830E-03 6.83678E-05 9.63026E-05 4.21614E-04
 -1       537 1.96512E-04 2.49663E-04 4.81116E-04 3.83701E-05-2.07509E-04 2.42341E-04
 -1       538 6.13101E-04 4.71523E-04 9.66422E-04-2.65211E-05-1.68187E-04 3.07802E-04
 -1       539 8.76424E-05 1.43006E-04 4.81651E-04-6.85677E-05 1.68963E-04 2.37648E-04
 -1       540 5.28408E-04 4.17821E-04 8.62426E-04 1.13196E-05 1.59632E-04 3.00437E-04
 -1       541 2.86556E-04 2.08973E-04 9.00041E-04 6.35407E-05-6.00564E-05 2.13504E-04
 -1       542 2.40343E-04 2.64121E-04 8.15577E-04-6.59551E-05 9.09963E-05 1.78752E-04
 -1       543-2.44726E-04-2.44727E-04-5.71027E-04-8.87311E-10 2.57576E-04-2.19411E-04
 -1       544 7.00049E-05 1.21358E-04 1.13819E-04-2.15212E-05 1.23234E-04 1.02626E-04
 -1       545 5.38069E-07 7.20066E-05-7.62642E-07-7.50910E-06 3.58433E-05-5.31614E-06
 -1       546-1.52401E-06 7.42377E-05-3.97972E-08 4.77390E-06-3.73259E-05-2.75656E-06
 -1       547-3.40188E-06 3.56389E-05-3.87155E-06 2.24953E-06-4.31927E-05-7.83817E-06
 -1       548 3.20997E-06 4.02185E-05 2.05686E-06 2.46690E-06-1.89927E-05-1.09431E-06
 -1       549-8.75170E-06 1.15773E-04 3.06626E-06 1.01189E-05-2.11799E-05-1.91071E-06
 -1       550 4.55298E-06 7.44152E-05 3.09947E-05-2.28594E-08-8.66859E-05 5.67357E-06
 -1       551-3.19310E-06 3.68134E-05-2.95010E-06-1.77119E-06 4.32696E-05-8.17049E-06
 -1       552 1.56786E-06 3.87736E-05 8.57792E-07-3.74631E-06 1.68362E-05-1.13544E-06
 -1       553 9.69235E-07 1.10788E-04 3.89788E-06-1.42155E-05 2.17582E-05-4.48826E-06
 -1       554 6.58953E-06 7.22563E-05 3.29040E-05 2.00315E-07 8.51341E-05 5.27771E-06
 -1       555 3.11680E-04 6.14479E-05 1.91554E-03 1.19617E-04 2.26262E-04 4.29109E-04
 -1       556 2.62222E-04 1.83475E-04 1.97479E-03-1.43907E-04-2.48656E-04 4.71504E-04
 -1       557 4.14281E-05 2.00349E-04 9.90156E-04-1.94358E-04-5.67193E-04 1.69002E-04
 -1       558 1.20108E-04 3.28627E-04 3.77272E-04 2.14220E-05-2.10641E-04 7.90107E-05
 -1       559 1.98614E-05 1.66622E-04 9.17930E-04 1.77198E-04 5.90580E-04 1.46582E-04
 -1       560 1.10592E-04 3.53342E-04 3.66534E-04-2.11512E-05 2.14456E-04 7.71737E-05
 -1       561-2.41323E-05 2.33426E-04 5.89469E-05 1.80331E-05 1.24999E-04-2.59897E-05
 -1       562 4.00980E-05 1.48643E-04 5.40319E-05-2.56088E-05 6.83497E-05 4.87338E-06
 -1       563-1.16522E-05 2.18161E-04 6.77315E-05-2.96912E-05-1.27635E-04-1.44172E-05
 -1       564 3.65943E-05 1.52847E-04 5.52963E-05 1.99973E-05-7.07884E-05 5.73669E-06
 -1       565 1.35367E-04-2.61866E-04-4.08668E-03-6.65590E-05 5.10512E-04-3.17526E-04
 -1       566 1.78048E-04-2.50556E-04-5.08212E-03 3.54850E-06-8.85271E-04-5.51089E-04
 -1       567 1.15496E-04-2.22354E-04-6.66672E-03-1.46689E-04 1.32883E-03-8.23552E-04
 -1       568 3.96052E-06-2.25441E-04 1.86024E-05 8.35746E-06 9.69996E-05-9.83617E-06
 -1       569 1.44402E-06-2.24463E-04 1.91042E-05-9.96268E-06-9.94771E-05-8.91999E-06
 -1       570-4.51087E-04 2.07492E-04-7.43185E-03 1.30673E-04 2.26141E-04-1.21242E-03
 -1       571 6.42218E-06-1.13928E-04-2.71148E-06-2.19973E-06 1.23466E-04-1.11297E-05
 -1       572-2.59126E-06-9.93660E-05 1.95620E-05 3.10023E-06 3.37864E-05 2.87403E-06
 -1       573-5.10154E-05-1.93637E-04 4.11573E-06 9.29257E-06 2.39634E-05-8.46392E-06
 -1       574-1.43419E-05-2.53660E-04-1.56796E-04 1.62948E-05 2.65212E-04-6.97297E-07
 -1       575 1.42629E-05-1.02700E-04 9.75905E-06 1.80401E-06-1.26988E-04-1.10668E-05
 -1       576 1.93499E-06-1.00185E-04 1.88004E-05-8.00210E-06-3.47830E-05 2.69434E-06
 -1       577-5.20826E-05-1.93176E-04 4.68364E-06-1.20841E-05-2.63171E-05-7.45725E-06
 -1       578-1.31621E-05-2.53208E-04-1.55830E-04-1.05974E-05-2.64976E-04-1.21270E-06
 -1       579 1.79365E-04 3.61306E-05-8.66622E-03-3.79747E-05 1.26704E-03-9.23360E-04
 -1       580-2.27555E-04-9.69495E-04-6.02585E-03-2.01706E-05 1.87882E-03-4.04476E-04
 -1       581-3.13224E-05-8.90771E-04-1.13390E-03 1.01736E-04 8.52471E-04-1.60900E-04
 -1       582-4.77288E-06-7.40854E-04-2.58550E-03 1.22539E-04 7.21209E-04 9.16083E-07
 -1       583-7.61071E-05-4.89752E-04-3.12930E-03-4.05827E-05 4.27889E-04-1.00705E-04
 -1       584-2.30213E-04-1.29891E-03-4.54692E-03 2.29857E-05 1.21833E-03-3.58954E-04
 -1       585 3.52645E-05-2.50039E-04-9.26556E-05 4.17281E-07 8.46439E-05 4.64326E-05
 -1       586-2.00989E-04-4.49661E-04-5.48467E-03-1.50192E-04 9.87887E-04-5.39658E-04
 -1       587-5.58941E-04-5.84525E-04-9.49071E-03-6.26241E-05 1.08690E-03-1.42612E-03
 -1       588-3.88053E-04-1.37247E-03-5.16757E-03 7.67142E-05-1.54139E-03-4.71256E-04
 -1       589 1.44178E-05-1.82800E-04-7.62489E-03 9.61666E-05-1.23474E-03-4.75960E-04
 -1       590-8.83161E-04-3.30568E-04-8.63335E-03 4.99479E-06-9.76714E-04-1.61544E-03
 -1       591-5.72435E-05-7.78985E-04-2.59773E-03-1.72794E-04-7.31547E-04-1.83985E-05
 -1       592-5.49573E-05-9.14341E-04-1.12206E-03-9.22620E-05-8.49860E-04-1.51781E-04
 -1       593 4.14309E-05-2.49473E-04-9.45099E-05 8.60279E-06-8.92271E-05 4.30564E-05
 -1       594-1.56073E-05-4.81060E-04-3.21623E-03 7.61826E-05-5.04842E-04-1.48512E-04
 -1       595-3.65868E-05-4.65169E-04-3.55370E-03-6.72944E-05-2.93112E-04-8.03205E-05
 -1       596-1.86929E-04-4.91114E-04-3.45219E-03 3.19351E-05 2.23662E-04-2.59824E-05
 -1       597 6.25302E-05 4.15668E-06-4.69259E-03-8.66842E-05-4.81504E-05-5.59600E-04
 -1       598-1.31344E-03-3.27868E-04-9.66559E-03-1.57192E-05 4.75089E-04-1.82645E-03
 -1       599-1.94414E-03-7.53151E-04-1.03160E-02 1.33032E-04-2.22217E-04-2.32367E-03
 -1       600-2.72375E-04-8.41232E-05-6.78196E-03 1.93083E-04-3.80228E-04-1.00943E-03
 -1       601-2.44108E-04 6.76290E-05-7.04484E-03-4.04943E-05 8.67224E-04-1.12325E-03
 -1       602-3.94588E-04-1.40161E-04-5.97479E-03 5.05014E-05 4.02075E-04-6.95660E-04
 -1       603-8.15726E-06 1.14155E-05-1.07933E-05 1.30075E-05 1.28281E-05 1.46923E-06
 -1       604 1.61085E-05-2.34018E-05 1.64411E-05 3.74229E-05-4.80176E-05-1.01463E-06
 -1       605-1.11297E-04-3.62854E-05-1.01867E-05 2.17799E-05 2.19143E-05 1.41612E-05
 -1       606-3.62671E-06 1.37785E-05-3.35191E-06 1.17593E-05 2.58661E-06-1.57319E-06
 -1       607 8.16236E-06-9.26946E-06 1.00404E-05 1.68411E-05-2.66647E-05-6.79771E-06
 -1       608-1.61163E-04-2.98123E-05-7.66072E-05-1.37893E-04 6.18995E-05 1.99809E-05
 -1       609-1.38549E-05-7.04248E-06 5.86104E-06 4.27715E-05-1.19334E-05 7.20415E-06
 -1       610 6.57509E-06-1.94834E-05 1.11194E-05 2.73976E-05-1.97674E-05 4.13007E-06
 -1       611-2.09815E-06-6.23091E-07 8.81639E-07 1.38099E-05 1.25532E-06-2.87644E-06
 -1       612 1.98539E-07 1.93990E-05-4.98851E-06 1.43580E-05 6.47941E-06 3.36718E-07
 -1       613-1.71917E-05-4.51899E-06-5.23380E-07 2.07520E-05 5.11047E-06 2.94373E-06
 -1       614 1.01517E-05-4.80275E-05 3.22927E-05 3.21920E-05-3.68458E-05 7.10235E-06
 -1       615-2.64327E-04 2.42451E-05-6.71772E-05-2.29570E-04-3.88666E-05 1.34640E-04
 -1       616-3.87535E-04-4.55637E-05-3.59441E-05-4.87309E-05 3.02363E-05 8.64580E-05
 -1       617 9.85360E-05-2.06497E-04 1.18298E-04 1.00569E-04-2.93788E-05 2.40230E-05
 -1       618-8.22935E-05-1.17042E-04 5.38033E-05 1.25738E-04-1.53638E-05 1.46157E-05
 -1       619-2.61565E-04-3.87368E-05-7.67756E-05-3.45964E-04 5.31821E-05 1.61504E-04
 -1       620-4.66999E-05-7.03582E-06-1.37335E-05-8.05849E-07 2.18861E-05 5.97333E-06
 -1       621-3.36271E-06 7.82032E-06-4.53342E-06 5.90230E-06 3.06327E-06-1.61339E-06
 -1       622-6.22733E-06 9.09008E-07-1.13235E-05 7.12900E-06 3.53559E-06-2.86811E-06
 -1       623 2.45909E-06 1.09087E-06-2.44165E-06 8.25699E-06 6.80628E-07-2.31242E-06
 -1       624-5.49446E-06-1.87158E-06 5.12711E-07 1.12399E-05-5.55325E-08-1.83944E-06
 -1       625-1.55947E-06 3.26288E-06-9.35675E-07 1.30969E-05-7.30418E-08-1.36520E-06
 -1       626-1.60945E-06 1.23591E-05 4.17936E-07 7.22928E-06 5.85167E-07-2.23130E-06
 -1       627-5.52157E-06 6.39730E-05-2.62677E-06 7.13983E-06-5.51535E-07 3.72394E-06
 -1       628 3.45451E-06 1.43359E-05-1.97137E-06 8.48452E-06 3.57942E-06-2.21153E-06
 -1       629-1.36377E-06 1.27119E-05-3.27441E-06 1.37687E-05 5.12039E-06-1.73515E-06
 -1       630 1.40504E-05 2.10340E-06 4.74316E-05 5.27185E-06-1.80493E-05-3.33141E-06
 -1       631-6.01488E-06-6.22460E-06 1.09728E-05 1.25530E-05-2.58132E-05-5.29095E-06
 -1       632 3.62607E-06 3.17132E-06 1.68965E-05 1.96132E-05-2.50618E-05 1.80775E-06
 -1       633-1.58439E-05 7.78105E-06-1.34924E-05 6.90284E-06-3.50252E-05-8.71682E-06
 -1       634 1.78443E-05 2.17247E-05 3.01699E-05 3.46534E-05-2.69047E-05 4.01308E-06
 -1       635 1.00429E-05 4.55215E-06 3.57030E-05 8.16337E-06-1.63978E-05-8.59238E-06
 -1       636 1.11970E-05 1.67223E-05 4.27958E-06 1.38030E-05-1.15770E-05-6.49450E-08
 -1       637 5.05423E-06 1.39597E-05 9.65025E-06 6.28329E-06-1.26651E-05-2.47203E-06
 -1       638-5.58358E-06-5.12079E-07 3.72695E-06 1.80580E-05-2.03097E-05-4.82310E-06
 -1       639-3.43829E-04-1.64587E-05 3.90349E-04-5.59351E-04-3.87920E-04 1.70574E-04
 -1       640-1.14637E-04 3.01340E-05-4.81869E-05-1.98705E-04 3.68347E-06 6.26471E-05
 -1       641-5.60959E-05 2.31555E-04 4.85582E-04-6.50101E-04-3.29001E-04 4.33808E-04
 -1       642 8.63978E-05-9.74484E-04-7.43502E-04 2.06094E-04 7.64800E-04-1.53406E-04
 -1       643-2.76318E-04-4.35344E-04-2.02687E-04 3.70301E-04 2.77710E-04-2.35952E-04
 -1       644 6.48655E-05-2.63757E-05 1.09903E-04 6.49687E-06-1.23755E-04 7.37031E-06
 -1       645-7.41468E-04-1.76172E-04-2.53403E-04 5.44873E-05 9.01857E-05-2.37835E-04
 -1       646-6.24346E-04-1.60722E-04-2.37025E-04-1.90600E-04 4.00852E-05-1.85943E-04
 -1       647-4.62858E-04 5.12964E-05 2.90679E-04-2.35652E-04-1.85332E-04 2.29518E-04
 -1       648-3.05454E-04-1.59444E-04-1.49735E-04 3.20969E-04 1.97531E-04-1.57764E-04
 -1       649-1.39431E-04-7.27328E-05 2.14907E-05 1.98869E-05 1.30787E-05 5.09339E-05
 -1       650 1.71604E-05-2.18106E-04 1.61874E-04 8.14604E-05-4.62148E-05 1.56621E-05
 -1       651-1.09347E-05-1.19530E-06 1.09390E-08 1.47485E-05 9.23209E-07 1.89024E-06
 -1       652-1.22989E-05-2.17342E-06 3.56215E-07 1.35200E-05-8.37191E-07 2.58276E-06
 -1       653-1.00737E-05-3.26309E-06-1.15399E-06 1.54504E-05 5.18910E-06-5.36186E-07
 -1       654-8.62300E-06 1.01114E-05 2.44016E-06 1.90445E-05-1.93519E-06 3.31106E-06
 -1       655 5.82024E-06 1.18662E-05 2.75989E-06 2.47785E-05-4.90804E-06 3.27864E-06
 -1       656-1.95376E-05-1.00786E-05 1.31484E-06 2.45222E-05 1.99935E-06 4.14129E-06
 -1       657-4.96440E-06-2.88819E-05 5.03122E-06 4.05976E-05-1.80166E-05 8.42692E-06
 -1       658-1.17775E-04-5.28342E-05-7.68490E-06-1.13455E-04 5.34017E-07 1.33479E-05
 -1       659-9.42433E-05-4.39811E-05-3.59796E-05-3.40469E-05 4.60852E-05 3.22505E-06
 -1       660-2.24377E-04-5.00509E-05-9.72652E-05-2.70457E-04 4.12440E-05 8.72423E-05
 -1       661-6.58652E-05-7.12133E-05-3.21259E-05-2.23972E-05 5.77879E-05 1.85937E-06
 -1       662-8.98956E-06 2.93214E-05-1.50823E-05 3.03319E-06 1.31952E-05-3.62259E-07
 -1       663-7.57742E-06 1.57787E-06-1.51790E-05 1.17532E-05 1.44329E-05 2.42651E-07
 -1       664 6.38320E-05 3.95584E-06 2.91473E-05 3.39272E-05-2.00925E-05 7.18997E-06
 -1       665-6.15029E-05 2.26132E-04 4.56917E-04-3.67527E-04-2.44989E-04 3.42263E-04
 -1       666-2.75386E-04 8.76212E-05 4.66010E-04-4.48719E-04-3.10557E-04 4.29896E-04
 -1       667-2.22951E-04 7.89000E-06-3.21403E-05-3.08108E-04 2.92709E-05 1.37050E-04
 -1       668-2.79117E-04-6.02594E-05-3.82121E-05-1.69697E-04 2.63518E-05 9.18368E-05
 -1       669-3.71299E-06 1.09235E-06-4.13233E-06 1.26604E-05 3.85170E-06 2.01586E-06
 -1       670-4.84076E-06 1.89209E-05-6.13197E-06 1.70822E-05 4.93710E-06-1.25948E-07
 -1       671-9.37325E-05-9.78028E-05-4.14857E-05-3.66260E-05 6.52032E-05 9.67256E-06
 -1       672-2.69990E-05-1.22495E-06-1.14179E-05 1.26054E-06 1.87029E-05 1.28267E-06
 -1       673-1.73973E-05-5.94410E-06-7.38667E-06 1.43414E-05 7.97411E-06 4.58560E-06
 -1       674-3.09712E-05-1.01603E-05-7.77871E-06 1.37462E-05 1.00996E-05 7.05987E-06
 -1       675 1.74711E-05 2.75448E-05 2.88934E-05 3.09297E-05-2.53919E-05-2.64813E-06
 -1       676 3.00250E-05 2.32878E-05 3.31642E-05 2.29211E-05-3.83748E-05-6.50830E-07
 -1       677 1.86370E-05-6.12315E-05 3.37978E-05 3.23088E-05-4.63907E-05 3.92599E-06
 -1       678 7.63279E-07-7.20805E-09 1.16317E-05 3.74474E-05-3.92111E-05 7.68422E-06
 -1       679-3.47466E-05-1.61329E-05 2.15678E-05 7.50377E-05-1.70894E-05 2.89669E-06
 -1       680 7.39129E-06 2.79605E-06 3.58326E-05 3.30156E-05-5.34725E-05 1.52311E-05
 -1       681 9.04691E-05 3.76593E-05 4.18402E-05 5.41088E-05-2.66035E-05-6.49364E-06
 -1       682-1.28781E-04-1.11349E-04-4.65148E-05-3.64758E-05 6.24096E-05 2.45910E-05
 -1       683-1.78348E-04 9.67041E-06-4.16643E-05-1.72509E-04 4.68993E-05 7.93000E-05
 -1       684-1.65996E-04-7.38466E-05-7.97746E-06-9.85214E-05 4.62356E-05 8.39609E-05
 -1       685-7.29817E-05-1.26995E-05-1.28952E-05 2.43433E-06 2.33676E-05 7.33770E-06
 -1       686-4.03141E-05-2.11300E-05-6.08928E-07 2.53970E-05 6.80722E-06 6.94946E-06
 -1       687-4.71120E-05-1.55859E-05 9.36609E-07 1.62738E-05 5.99914E-06 1.16921E-05
 -1       688-1.10336E-04-1.36339E-04-8.14139E-06 7.25783E-05 5.24627E-06 3.17473E-05
 -1       689-1.76662E-04-4.08712E-05-9.58841E-06 1.21332E-05 2.54189E-05 2.67712E-05
 -1       690-9.09924E-06 1.06834E-05-1.46950E-05-1.10329E-05-1.46039E-05-1.59948E-06
 -1       691 1.02130E-05-2.20341E-05 7.11404E-06-3.47383E-05 4.03981E-05-2.30454E-06
 -1       692-9.93852E-05-3.25202E-05 5.48632E-06-1.93638E-05-1.61807E-05 2.31369E-05
 -1       693-3.04204E-06 9.42022E-06-1.71329E-06-1.06460E-05-1.68893E-06-7.77947E-07
 -1       694-2.28501E-06 1.51952E-05 5.07510E-07-2.05797E-05 2.16038E-05-4.16443E-06
 -1       695-9.95871E-05-5.93484E-05-2.22173E-05 1.02973E-04-4.90886E-05 5.30741E-05
 -1       696-1.13810E-05-1.64630E-05 5.55755E-06-4.34593E-05 7.48936E-06 9.28969E-06
 -1       697 1.21702E-05 6.74630E-06 5.66465E-06-1.86951E-05 2.73573E-05 4.02038E-06
 -1       698-5.08677E-06 6.23868E-07-8.82770E-07-1.53891E-05-3.81650E-06-3.74677E-06
 -1       699-1.39942E-06 2.32077E-05-3.16812E-06-1.25632E-05 8.54899E-07 2.27555E-06
 -1       700-2.18752E-05-3.59963E-06 1.17657E-06-2.03149E-05-6.88670E-06 2.38362E-06
 -1       701 5.78455E-06-4.61506E-05 2.59209E-05-3.12879E-05 3.30913E-05 6.26505E-06
 -1       702-2.70925E-04 5.04087E-05-4.22600E-05 1.93734E-04 4.54897E-05 1.09114E-04
 -1       703-4.09246E-04-7.58458E-06 8.21583E-06 4.58810E-06-1.49084E-07 3.27734E-05
 -1       704 9.04034E-05-1.79331E-04 9.93392E-05-1.02200E-04 4.22513E-05 2.15269E-05
 -1       705-7.30254E-05-1.35532E-04 6.46414E-05-1.22851E-04-4.85347E-06 2.45436E-05
 -1       706-2.47346E-04 1.12133E-05-8.97033E-05 3.63441E-04-1.45666E-05 1.39593E-04
 -1       707-4.83912E-05-2.03843E-05-1.23035E-05-4.51280E-06-3.10087E-05 8.28842E-07
 -1       708-2.42966E-06 6.56745E-06-3.63428E-06-4.43170E-06-2.94305E-06-4.74405E-07
 -1       709 3.92268E-07 1.10948E-05 2.79277E-06-6.63151E-06-7.20598E-07-6.82820E-07
 -1       710 4.04992E-06 1.70153E-05 1.06720E-06-5.08508E-06-1.38923E-06-9.71858E-07
 -1       711-3.22725E-06 6.19412E-05 9.72182E-07-6.85367E-06 3.31429E-06 1.40507E-06
 -1       712-1.95267E-06 1.52610E-05-5.42772E-07-1.40152E-05 1.39086E-06 1.39164E-06
 -1       713-6.99723E-06 1.11429E-06-1.08896E-05-5.54946E-06-2.46277E-06-2.78028E-06
 -1       714-6.10281E-06-3.43476E-06 9.03639E-07-1.10550E-05-8.80348E-07-1.43339E-06
 -1       715-8.11148E-09 1.71472E-08-2.85903E-06-8.63615E-06-2.03892E-06-2.45531E-06
 -1       716-3.29473E-06 5.25682E-06-1.24319E-06-1.29692E-05-1.98297E-06-3.04648E-06
 -1       717-3.62218E-06 4.83727E-06 3.58934E-06-1.17490E-05 1.66770E-05-2.87905E-06
 -1       718 9.32914E-06 1.27657E-05 9.91223E-06-1.10860E-05 1.76019E-05-6.87171E-06
 -1       719 5.44206E-06 2.22553E-05 9.44029E-06-9.66325E-06 1.66830E-05-1.45658E-06
 -1       720 1.40465E-05 1.96528E-05 5.20302E-06-1.14604E-05 1.30556E-05 1.85390E-06
 -1       721-5.18847E-06 5.64773E-06-3.14885E-07-1.75664E-05 2.07601E-05-4.97677E-06
 -1       722-8.06671E-06 6.62220E-06 1.75358E-06-1.46840E-05 2.38200E-05-4.02103E-07
 -1       723-1.39313E-05 9.01170E-06-1.51426E-05-4.72643E-06 3.41367E-05-8.71011E-06
 -1       724 5.28561E-06 3.67962E-06 1.77667E-05-1.81411E-05 2.82048E-05 4.19700E-06
 -1       725 1.02944E-05 1.64102E-05 2.18215E-05-3.27768E-05 2.53946E-05 3.06875E-06
 -1       726-1.34271E-04 4.80087E-05-5.50415E-05 1.95454E-04-4.09146E-06 4.56074E-05
 -1       727-2.76205E-04 1.87422E-05 4.10266E-04 5.21584E-04 3.61129E-04 1.41643E-04
 -1       728-1.90285E-05 2.65138E-04 4.90415E-04 6.48822E-04 3.54998E-04 4.59260E-04
 -1       729-2.37075E-04-3.47046E-04-1.16319E-04-3.54150E-04-2.72324E-04-2.45997E-04
 -1       730 7.46407E-05-9.74389E-04-7.38546E-04-2.13343E-04-7.58204E-04-1.54895E-04
 -1       731 7.11751E-05-2.95304E-05 1.06133E-04-1.02609E-05 1.23207E-04 2.80973E-06
 -1       732-6.77210E-04-1.90684E-04-2.50403E-04 1.72309E-04-3.68513E-05-1.94372E-04
 -1       733-7.79035E-04-8.56575E-05-3.95484E-04-8.94298E-05-8.93534E-05-3.09284E-04
 -1       734-2.05736E-04-8.12221E-05 9.10762E-05-1.08141E-04-1.59121E-05 3.59666E-05
 -1       735-3.93221E-04-2.87469E-04-3.03231E-04-2.40619E-04-1.65855E-04-1.71313E-04
 -1       736 3.09041E-05-1.87976E-04 1.41916E-04-5.28560E-05 5.06786E-05 2.49327E-05
 -1       737-3.50392E-04 3.56734E-05 4.13795E-04 2.72134E-04 2.28433E-04 2.74323E-04
 -1       738-1.27076E-05-3.38468E-07 1.24700E-06-1.49498E-05 6.53575E-07 1.94113E-06
 -1       739-1.11882E-05-1.00269E-06-8.32905E-07-1.54068E-05-1.25077E-06 1.50218E-06
 -1       740-1.21939E-05-3.07789E-06-2.14118E-06-1.49056E-05-7.50202E-06-7.10645E-07
 -1       741 3.40760E-06 2.04438E-06 3.04014E-06-2.33300E-05 2.89219E-06 3.20692E-06
 -1       742-1.08565E-05 2.03140E-06 1.37866E-06-2.20713E-05-1.16265E-08 1.24608E-06
 -1       743-2.20929E-05-1.80274E-05 1.47910E-06-2.93299E-05 1.84152E-06 6.76516E-06
 -1       744 5.16657E-07-1.41164E-05 2.42346E-06-3.09542E-05 1.83240E-05 8.93633E-06
 -1       745-5.58821E-05-3.69097E-05-2.10687E-05 4.47795E-05-3.99964E-05 1.93120E-05
 -1       746-9.12737E-05-6.06180E-05-9.85259E-07 9.89971E-05-5.02666E-06 2.80398E-05
 -1       747-8.59314E-06 3.59676E-05-1.84627E-05-4.37486E-06-1.07671E-05-1.07386E-06
 -1       748-4.28684E-05-2.75880E-05-8.97868E-06 3.03969E-05-4.04388E-05 1.07886E-05
 -1       749-8.27238E-06 6.41858E-06-1.00190E-05-1.40146E-05-8.20841E-06 2.57937E-06
 -1       750-1.71101E-04-1.07570E-04-2.53540E-05 2.53145E-04-1.77379E-05 1.06788E-04
 -1       751 6.50326E-05 1.15565E-05 3.21651E-05-3.99887E-05 1.90335E-05 7.32162E-06
 -1       752-2.80038E-04 1.02950E-04 4.40392E-04 4.70541E-04 3.34782E-04 3.49821E-04
 -1       753-1.62463E-04 2.14862E-04 5.35683E-04 4.33209E-04 3.13505E-04 3.82562E-04
 -1       754-2.35150E-04-7.26577E-06-1.77760E-05 3.36699E-04 1.01562E-05 1.26729E-04
 -1       755-2.42216E-04 3.57319E-05-2.92896E-05 1.39245E-04 1.05219E-05 9.83959E-05
 -1       756-4.29396E-06 5.23737E-06-6.66495E-06-1.48657E-05-4.00579E-06 1.70293E-07
 -1       757-6.03726E-06-1.36314E-06-8.26976E-06-1.55559E-05-8.14230E-06-1.79884E-06
 -1       758-3.15813E-05-7.63981E-07-1.34983E-05-1.05656E-05-2.14127E-05-3.59507E-06
 -1       759-1.02182E-04-6.23453E-05-2.13637E-05 2.93103E-05-4.08185E-05 2.60453E-05
 -1       760-1.94178E-05-9.87413E-06-8.65781E-06-1.47637E-05-1.30403E-05 1.11067E-07
 -1       761-2.44865E-05-2.48725E-05-6.57960E-06-7.72498E-06-2.21442E-05 2.74584E-07
 -1       762 2.30330E-05 2.32624E-05 1.98820E-05-2.29622E-05 3.42295E-05-1.38720E-06
 -1       763 1.26955E-05 2.81604E-05 2.08469E-05-3.01135E-05 2.40800E-05-3.90682E-06
 -1       764 1.08479E-05-6.04799E-05 2.20468E-05-3.19883E-05 4.19660E-05 2.45911E-06
 -1       765-1.99260E-06-7.32954E-06 4.08181E-06-2.95471E-05 2.87466E-05 6.53701E-06
 -1       766 1.52689E-06-3.99605E-05 1.36729E-05-2.66159E-05 2.80506E-05 5.96170E-06
 -1       767-3.28619E-05-5.59498E-05 4.89142E-06-7.11509E-05 6.69482E-06 3.65703E-06
 -1       768 6.63713E-05 3.75410E-05 3.25458E-05-5.60678E-05 1.31151E-05-7.82530E-06
 -1       769-1.92528E-04-5.80399E-05 4.83774E-06 6.95157E-05-1.49420E-05 6.61500E-05
 -1       770-1.37657E-04 8.73328E-06-1.15487E-05 1.10398E-04-3.37970E-05 6.56976E-05
 -1       771-9.81889E-05-5.24755E-05-2.33497E-06 5.04031E-05-2.29711E-05 3.56090E-05
 -1       772-5.16540E-05-2.97394E-05 4.40856E-06 2.17226E-07-2.48441E-05 7.66830E-06
 -1       773-5.53781E-05-1.13621E-05 3.95063E-06-2.14621E-05-9.91210E-06 1.06793E-05
 -1       774-4.02714E-05-2.03689E-05 1.18697E-05-2.59399E-05 5.63533E-06 1.88042E-05
 -1       775-9.38010E-05-5.14778E-05 1.43517E-05-6.36015E-05-2.55393E-05 1.79752E-05
 -1       776-1.93468E-04-4.84713E-05-1.71541E-05 1.09504E-05-1.86217E-05 3.99326E-05
 -1       777 6.92679E-03 8.04158E-06 7.11172E-05 8.95265E-04 1.66065E-04 5.80145E-04
 -1       778 8.01288E-03 8.44680E-04 1.47371E-03 1.04588E-03 3.78526E-04 3.24687E-03
 -1       779 7.00794E-03 4.35721E-04 9.61912E-04 6.14681E-04 1.80297E-04 2.51446E-03
 -1       780 6.32157E-03 7.13159E-04 2.57704E-03 9.22947E-04 6.37958E-04 4.43725E-03
 -1       781 6.09517E-04 4.71005E-04 5.03491E-03 3.17726E-04 9.80539E-04 1.28183E-03
 -1       782 1.54955E-03 6.94450E-04 5.88893E-03 4.79455E-04 1.00367E-03 3.50604E-03
 -1       783 3.63387E-03 6.46442E-04 5.03204E-03 1.08616E-03 8.42934E-04 4.46020E-03
 -1       784 7.94777E-03 8.86742E-04 1.49123E-03-1.10149E-03-3.85158E-04 3.15026E-03
 -1       785 6.88732E-03 3.27220E-04 9.28999E-04-7.04976E-04-1.97325E-04 2.41046E-03
 -1       786 6.39549E-03 6.31592E-04 2.53244E-03-9.78055E-04-7.53758E-04 4.43994E-03
 -1       787 6.62567E-03-1.47355E-04 1.11438E-04-1.04999E-03-1.36052E-04 3.92408E-04
 -1       788 5.30439E-04 4.46991E-04 4.93893E-03-3.22404E-04-9.60044E-04 1.12403E-03
 -1       789 1.54312E-03 7.58900E-04 5.87597E-03-5.71225E-04-1.03596E-03 3.49147E-03
 -1       790 3.60631E-03 5.13147E-04 4.96582E-03-1.09644E-03-9.24505E-04 4.39867E-03
 -1       791-2.15616E-05 1.87558E-05-2.81421E-04-1.26936E-05 2.26423E-04-1.14600E-04
 -1       792 2.21555E-05 2.00735E-05-3.31998E-04 1.13488E-05-2.31678E-04-1.21252E-04
 -1       793 1.88875E-05 2.61930E-05-1.56667E-04-1.15555E-05-2.30220E-04-7.69286E-04
 -1       794-1.37525E-05 1.41726E-05-1.64156E-04 1.59051E-05-2.23695E-04-6.61071E-04
 -1       795 3.53113E-05 5.25441E-05-1.78381E-04 9.86927E-07 2.03839E-04-7.19827E-04
 -1       796 1.44528E-05 2.12620E-05-1.85444E-04-2.21814E-05 2.08424E-04-6.73635E-04
 -1       797-4.21719E-03-7.17956E-04-1.25037E-04-2.02215E-03 6.65134E-04 1.80513E-03
 -1       798-3.53752E-03-1.07769E-03-6.67390E-04 2.14345E-03-1.05015E-03 2.03634E-03
 -1       799 1.82115E-03 9.26586E-05 9.00550E-05 8.61959E-04 9.07423E-04 1.85053E-03
 -1       800 2.07419E-03 4.32837E-04-2.03733E-04 9.95966E-04 4.95606E-04 9.10014E-04
 -1       801 2.15312E-03 5.10577E-04-3.36020E-04 1.04575E-03 4.39498E-04 8.12005E-04
 -1       802 3.47179E-03 8.42951E-04 1.72223E-03 1.26767E-03 1.76231E-03 3.94644E-03
 -1       803 3.28448E-03 1.01012E-03 1.83836E-03-1.29838E-03-1.57181E-03 3.70455E-03
 -1       804 1.82772E-03 7.03069E-04 5.45349E-06-1.08642E-03-7.35624E-04 1.24753E-03
 -1       805 1.79239E-03 4.78022E-04 6.90129E-04-9.22036E-04-1.17503E-03 2.06239E-03
 -1       806 1.78150E-03 6.81144E-04-4.06625E-04-1.16833E-03-5.99825E-04 1.13632E-03
 -1       807-6.07321E-05-8.78128E-05-4.45050E-04-6.56047E-06 1.00795E-04-3.38349E-05
 -1       808-1.05899E-04-5.92650E-06-5.27223E-04 6.59726E-06 1.78923E-04-9.76379E-05
 -1       809-1.72338E-05-7.09712E-05-4.63862E-04-3.32636E-06-9.86095E-05-2.76547E-05
 -1       810-6.73392E-05-3.22385E-06-5.57942E-04-9.65172E-06-1.87118E-04-9.08209E-05
 -1       811-1.65630E-05 7.86771E-06-2.92669E-04-3.60865E-07 9.88888E-05-5.00050E-05
 -1       812 3.07164E-05 2.23304E-05-3.12610E-04 1.16345E-05-1.12255E-04-4.97852E-05
 -1       813 1.74520E-05 9.46483E-05-1.31120E-04-1.36333E-05 9.74674E-05-3.06978E-05
 -1       814 5.23780E-05 1.10029E-04-1.43588E-04 7.07086E-06-1.09943E-04-3.25649E-05
 -1       815 6.98701E-05 3.03822E-05-7.57072E-05-1.77913E-05 1.90985E-04-9.79291E-05
 -1       816 9.40050E-05 3.58588E-05-9.22603E-05 2.40810E-05-1.87819E-04-1.01961E-04
 -1       817-2.14286E-03-5.63494E-04 5.87137E-04 1.60619E-03-9.40878E-04 1.56237E-03
 -1       818-2.02505E-03-7.13447E-04 5.97501E-04 1.64354E-03-7.63864E-04 1.31651E-03
 -1       819-3.29299E-03-1.07080E-03-3.81810E-04 1.81983E-03-1.30496E-03 2.29156E-03
 -1       820-2.58598E-03-6.22263E-04-8.16658E-05 2.04306E-03-7.29943E-04 1.39994E-03
 -1       821-6.07089E-03-2.01042E-03-2.00877E-03 2.52528E-03-1.22286E-03 2.09634E-03
 -1       822-2.50585E-03-3.12584E-04 3.74409E-04-1.49104E-03 5.41396E-04 1.04799E-03
 -1       823-2.40086E-03-4.33511E-04 3.25438E-04-1.56078E-03 4.81299E-04 1.01729E-03
 -1       824-3.77827E-03-7.86590E-04-4.61854E-05-1.70894E-03 8.21122E-04 1.94026E-03
 -1       825-3.18794E-03-1.51399E-04 2.70596E-04-1.86855E-03 3.16730E-04 1.03521E-03
 -1       826-7.44592E-03-1.92213E-03-1.16780E-03-2.55616E-03 9.68664E-04 2.24025E-03
 -1       827 1.11931E-03 1.64672E-04-6.13643E-04 2.85019E-04-1.93988E-04-7.94466E-04
 -1       828-8.85160E-04-2.17044E-04-8.77122E-05-3.58246E-04-2.60776E-04-8.97083E-04
 -1       829-2.24890E-03-4.70992E-04 1.39970E-04-1.40351E-03 4.11313E-04 8.03875E-04
 -1       830-1.47206E-03-3.29751E-04 1.31305E-05-7.13338E-04-5.75062E-05-1.01476E-04
 -1       831-2.62802E-04 2.01565E-05 5.24369E-05-1.69829E-04-1.23137E-04-4.48885E-04
 -1       832 1.65231E-03 2.67095E-04-6.09764E-04 6.56018E-04-4.49903E-06 1.35695E-04
 -1       833 2.13579E-03 4.50843E-04-5.71194E-04 1.01772E-03 3.57925E-04 7.32965E-04
 -1       834 4.54539E-04 1.61224E-05-3.44250E-04 1.61733E-04-1.20187E-04-3.18700E-04
 -1       835 2.71999E-03 2.57404E-04 6.33068E-04 1.11435E-03 9.39444E-04 1.81666E-03
 -1       836 2.47338E-03-5.00856E-05 1.74171E-03 1.22761E-03 1.09213E-03 2.94378E-03
 -1       837 4.32498E-03 4.69020E-04 2.04292E-03 1.40899E-04 2.28091E-04 4.13696E-03
 -1       838 2.34611E-03 5.78161E-04 5.44215E-04-1.32426E-03-9.43915E-04 1.80982E-03
 -1       839 3.60539E-03-2.78730E-04 1.29815E-03-7.88856E-04-6.62276E-04 2.82793E-03
 -1       840-9.19104E-04-1.78675E-04-5.33679E-05 3.82673E-04 2.43711E-04-6.96622E-04
 -1       841 1.18991E-03 1.44103E-04-6.36245E-04-3.19414E-04 2.11937E-04-7.24997E-04
 -1       842 1.53233E-03 4.12441E-04-7.27607E-04-1.11130E-03-3.82628E-04 9.03706E-04
 -1       843 1.96057E-03 2.02298E-04-4.82777E-04-6.40545E-04-1.68799E-05 1.43424E-04
 -1       844 5.58079E-04-1.01997E-05-3.78079E-04-1.24452E-04 1.16125E-04-3.37957E-04
 -1       845-1.63641E-03-2.98052E-04-4.91831E-05 7.19170E-04 7.85004E-05-7.00007E-05
 -1       846-1.44225E-03-3.50075E-04 5.51674E-04 1.40160E-03-4.60851E-04 8.85957E-04
 -1       847-3.69674E-04-4.55014E-05 5.13496E-05 1.55664E-04 1.50778E-04-4.04044E-04
 -1       848 5.74769E-05 7.93792E-05-4.29064E-04-2.78603E-05 1.96184E-04-3.33031E-04
 -1       849 1.45927E-04 1.48144E-05-3.18125E-04-1.09182E-04 1.61681E-04-5.18354E-04
 -1       850 1.14373E-05 1.81163E-05-2.70092E-04-1.47845E-05 2.47138E-04-3.60850E-04
 -1       851 3.45249E-04 1.31080E-05 1.49447E-05 1.67053E-05-2.49354E-05-4.52830E-04
 -1       852-3.00439E-05 2.06033E-05-7.53133E-05-2.09346E-05-1.83691E-05-7.05296E-04
 -1       853 3.22172E-04 5.96629E-05-8.62723E-06-1.83763E-05 1.40539E-05-4.49233E-04
 -1       854 4.06905E-05 6.26005E-05-4.25418E-04 3.15808E-05-2.02416E-04-3.34285E-04
 -1       855 1.37808E-04-1.49305E-06-3.05515E-04 9.06887E-05-1.57470E-04-5.10868E-04
 -1       856-4.14466E-05 2.37702E-05-6.92138E-05 1.54477E-05-4.88879E-06-6.96329E-04
 -1       857 1.20965E-05 1.07898E-05-2.82048E-04 8.09346E-06-2.56958E-04-3.56710E-04
 -1       858-2.08598E-05-4.17290E-05-1.26284E-04 8.81723E-06 1.86938E-04-3.40755E-04
 -1       859-1.22443E-04-1.77265E-05-2.97210E-05 8.85690E-05 1.47580E-04-4.48704E-04
 -1       860-3.56024E-04-1.55412E-05-8.69964E-05 3.85835E-06-4.39235E-05-3.97565E-04
 -1       861-6.39019E-03-1.33677E-04 2.70027E-04-1.08785E-03 9.81949E-04 4.03829E-03
 -1       862-6.10873E-03-8.51689E-04 4.87397E-04-2.33370E-03 5.70698E-04 1.46806E-03
 -1       863-4.80623E-03-1.03603E-03 7.30509E-05 2.41311E-03-6.98233E-04 1.34358E-03
 -1       864-7.14976E-03-2.03348E-04 1.51949E-04 7.67420E-04-5.44064E-04 2.77434E-03
 -1       865-3.32534E-04-3.49197E-05-6.24348E-05 1.98672E-05 4.44075E-05-3.78741E-04
 -1       866-8.60074E-06-2.93407E-05-1.03554E-04-1.35475E-05-1.97609E-04-3.20352E-04
 -1       867-1.36466E-04-6.61421E-06-1.04214E-05-8.95444E-05-1.56922E-04-4.33968E-04
 -1       868-1.84635E-03 4.34634E-04-1.90899E-05 6.57699E-05 8.54609E-06-5.60903E-04
 -1       869-4.95194E-04 4.61150E-04 1.26951E-05 5.79392E-05 5.22850E-06-2.03018E-04
 -1       870-2.03564E-03 2.39155E-04 6.17439E-05-4.47551E-04-1.75438E-04-4.17765E-04
 -1       871-1.60124E-03 2.92244E-04 3.65040E-05 2.70226E-04 6.32329E-05-3.56868E-04
 -1       872-6.29429E-03 8.87612E-05 4.49449E-04-4.49125E-04-3.80631E-04-1.57262E-03
 -1       873-6.79222E-04 4.67340E-04 8.86005E-05-8.15600E-05 4.30992E-06-1.23179E-04
 -1       874-5.13639E-03-1.79739E-05 1.98039E-04 6.60175E-04 4.87084E-04-1.42326E-03
 -1       875-1.89344E-04 4.13076E-04 2.08842E-05-4.90857E-05-8.10779E-06-3.61669E-05
 -1       876-1.99893E-04 3.92280E-04 4.59411E-05-4.58499E-05 4.00051E-05-1.52620E-05
 -1       877-2.40819E-04 3.42324E-04 2.60705E-05 6.67073E-05-1.83600E-05-3.45876E-05
 -1       878-2.45545E-04 3.92965E-04 1.73279E-05 2.43350E-05 4.75312E-07-5.89968E-05
 -1       879-5.22209E-04 5.37332E-04 9.81284E-05-3.68402E-05-2.23524E-05-2.12866E-04
 -1       880-4.83968E-04 3.21173E-04 4.07347E-05-4.53257E-05 2.20502E-06-5.14451E-05
 -1       881-1.07694E-03 2.14852E-04 2.73898E-05-2.33618E-04-1.25638E-05-1.13783E-04
 -1       882-1.66510E-03-5.22270E-05-1.08707E-04-5.13845E-04-1.11933E-04-1.20993E-04
 -1       883-1.43311E-03 3.28692E-04-7.13854E-06-2.89469E-04-6.83120E-05-1.93916E-04
 -1       884-2.76461E-03-2.31263E-04-1.80837E-05-1.11655E-03 5.78652E-05 1.72712E-04
 -1       885-4.79279E-03-1.60438E-04-1.72149E-04-1.35903E-03-2.52038E-04-7.20502E-04
 -1       886-6.60918E-03 2.59198E-04 8.89196E-04-3.34303E-04-9.92650E-05-8.81162E-04
 -1       887-3.67859E-03 3.31173E-04 2.82407E-04-4.71723E-04-3.41794E-04-8.04098E-04
 -1       888-7.19541E-03-3.62918E-04-1.12392E-03 4.06509E-04 1.25428E-04 2.28351E-04
 -1       889-4.08022E-03-2.84752E-04-7.62978E-05 1.35907E-03 3.24254E-04-7.58598E-04
 -1       890-5.84965E-03-2.12025E-05 3.83227E-04 4.53973E-05-4.88258E-05-1.34219E-03
 -1       891-3.00849E-03-2.50572E-04-9.52300E-05 8.24735E-04 1.57918E-04-2.20084E-04
 -1       892-1.46310E-03 4.55771E-05-6.28111E-06 3.78993E-04 4.14728E-05-2.03495E-04
 -1       893-8.96755E-04 2.03385E-04 1.95549E-06 1.59953E-04-2.53403E-05-1.09181E-04
 -1       894-2.70778E-03 2.14688E-04 1.08527E-04 4.96067E-04 9.23202E-05-4.22896E-04
 -1       895-4.39249E-04 2.95130E-04 1.95260E-05 5.86556E-05 1.14916E-05-4.50250E-05
 -1       896-9.17162E-04 3.54119E-04-2.77697E-05 1.60370E-04 3.04417E-05-2.29978E-04
 -1       897-1.16236E-03 3.66296E-04-8.65639E-05 4.65951E-05 4.68848E-07-3.85335E-04
 -1       898-1.81005E-03 3.41677E-04 1.74217E-05 1.92756E-04 1.20452E-05-5.67065E-04
 -1       899-1.45585E-03 4.47857E-04 4.42355E-05 1.15260E-05 5.50204E-05-2.28154E-04
 -1       900-3.45644E-03 2.79594E-04 1.35735E-04-2.64577E-04-3.09661E-05-4.80488E-04
 -1       901-1.51327E-03 5.50281E-04 1.59838E-04-1.91540E-04-4.16530E-05-1.37905E-04
 -1       902-2.92363E-03 4.57376E-04 1.60573E-04 1.91065E-04 8.73513E-05-6.32321E-04
 -1       903 1.79935E-03-4.89290E-04-6.93552E-04-8.82291E-05 2.01029E-05-2.45693E-04
 -1       904 5.69879E-04-4.67769E-04-6.99714E-04-6.53454E-05-1.74262E-06-1.87872E-04
 -1       905 2.01025E-03-2.56045E-04-4.87797E-04 3.96369E-04-6.54917E-05-3.11559E-04
 -1       906 1.56613E-03-3.22381E-04-5.05382E-04-2.50425E-04 1.79194E-05-3.61335E-04
 -1       907 4.42140E-03-6.40657E-04-1.44498E-03 6.14678E-04-4.40138E-04-1.31225E-03
 -1       908 8.08098E-04-4.43772E-04-7.15835E-04 8.34596E-05 8.56432E-06-2.48989E-04
 -1       909 4.18963E-03-1.21845E-04-8.90391E-04-5.43336E-04 4.24255E-04-1.01001E-03
 -1       910 2.28898E-04-4.07912E-04-7.49320E-04 7.12290E-05 1.39802E-05-9.17491E-06
 -1       911 2.53914E-04-3.95480E-04-6.36847E-04 3.74307E-05-2.47626E-07-4.82385E-05
 -1       912 1.72772E-04-3.83549E-04-7.42426E-04-4.91095E-05-2.10727E-05-5.11381E-06
 -1       913 1.71107E-04-4.10581E-04-6.31710E-04-4.50602E-05 4.97672E-06-3.38690E-05
 -1       914 6.03098E-04-5.20933E-04-7.10880E-04-2.93891E-05-1.22658E-05-2.51173E-04
 -1       915 4.59671E-04-3.97561E-04-6.30671E-04 9.12882E-05 2.17213E-06-9.64165E-05
 -1       916 1.80978E-03-3.37266E-05-3.01920E-04 4.25293E-04-4.71955E-05-1.01159E-04
 -1       917 1.18710E-03-2.46590E-04-2.76860E-04 2.54947E-04 1.86692E-05-1.72175E-04
 -1       918 1.34614E-03-3.58516E-04-6.37888E-04 3.22326E-04-5.88006E-06-2.13161E-04
 -1       919 2.65044E-03 2.14609E-04-4.12598E-04 8.26249E-04 5.84515E-05 2.16132E-05
 -1       920 3.64461E-03-1.16065E-03-1.59753E-03 4.86635E-04-1.54150E-04-1.32239E-03
 -1       921 3.25401E-03-1.16871E-04-5.19862E-04 8.89369E-04-2.64710E-04-6.26164E-04
 -1       922 3.15541E-03-3.27409E-04-7.49631E-04 4.79785E-04-3.10553E-04-4.79247E-04
 -1       923 3.20942E-03 1.03210E-04-6.59759E-04-9.29442E-04 3.07292E-04-7.75736E-04
 -1       924 4.29034E-03-7.06859E-04 1.02039E-04-5.22882E-04 2.86012E-04-7.55730E-05
 -1       925 5.28880E-03-1.60616E-04-7.76833E-04-4.31313E-05 1.36903E-04-1.03919E-03
 -1       926 2.90875E-03 1.10227E-04-5.65356E-04-6.66879E-04 1.51804E-04-2.65454E-04
 -1       927 1.04547E-03-1.90921E-04-2.26230E-04-2.15288E-04-3.34525E-05-1.56394E-04
 -1       928 1.52599E-03-2.24316E-04-4.84911E-04-3.47848E-04-8.97909E-06-1.54748E-04
 -1       929 2.50682E-03-1.49409E-04-5.42710E-04-3.57949E-04 7.67395E-05-4.96546E-04
 -1       930 4.55306E-04-3.74538E-04-6.25264E-04-6.18153E-05 9.04628E-06-1.03271E-04
 -1       931 1.11895E-03-3.91568E-04-6.48698E-04-1.39005E-04 3.20538E-05-3.08011E-04
 -1       932 1.08172E-03-5.27968E-04-7.76964E-04-4.29453E-05-1.69769E-05-2.74781E-04
 -1       933 1.71251E-03-4.35498E-04-6.95354E-04-1.01625E-04-1.78929E-05-4.31991E-04
 -1       934 1.35493E-03-5.07585E-04-7.51522E-04-1.04158E-04 4.01435E-06-1.95245E-04
 -1       935 3.14980E-03-3.51293E-04-5.30502E-04 2.26774E-04 1.71809E-06-1.92206E-04
 -1       936 1.53183E-03-5.51405E-04-6.74997E-04 1.17630E-04 1.95209E-05-1.06150E-04
 -1       937 2.87341E-03-3.11209E-04-5.52450E-04-2.12507E-04 7.33955E-05-5.11260E-04
 -1       938 5.31748E-03-2.64295E-04-1.27391E-05 4.74454E-04 5.73837E-05-4.40724E-05
 -1       939-6.43343E-03 6.07868E-04 7.90889E-05-6.71898E-04 6.30596E-05-1.45699E-03
 -1       940 5.30822E-03-3.04077E-04 4.59732E-05-6.52843E-04-1.32266E-04-2.71469E-04
 -1       941 2.64193E-04-1.76549E-04 1.14571E-03-1.06689E-04-1.61245E-04 7.30879E-04
 -1       942 8.38599E-04-2.52262E-05 1.09300E-03-1.72235E-05 4.21792E-05 1.05086E-03
 -1       943 1.60122E-02 5.11085E-04 2.91049E-04 1.94133E-04 1.59009E-04 2.67437E-03
 -1       944 1.60350E-02 8.19179E-04 7.00537E-04-1.49592E-04-5.15322E-05 2.75548E-03
 -1       945 1.60883E-02 2.81031E-04 9.93062E-04-1.03102E-04 3.75649E-05 4.10312E-03
 -1       946 1.51924E-03-6.97866E-05 1.15901E-03-8.66763E-06-1.80727E-05 1.36151E-03
 -1       947 2.41215E-03-1.15143E-05 1.33676E-03 2.31833E-05-1.96109E-05 1.79508E-03
 -1       948 3.42181E-03-9.57967E-05 1.34011E-03-2.64890E-06-1.70598E-05 2.29538E-03
 -1       949 4.77706E-03-1.12001E-05 1.50820E-03-1.41241E-05-2.83393E-05 2.79818E-03
 -1       950 6.80652E-03-1.31040E-04 1.48048E-03 3.85434E-05-1.61358E-05 3.25977E-03
 -1       951 9.50670E-03-5.44946E-05 1.86518E-03 1.72757E-05-3.14464E-05 4.06227E-03
 -1       952 1.26819E-02 1.91280E-05 1.37839E-03-6.29551E-05-5.27520E-05 4.00265E-03
 -1       953-7.46407E-03-2.60311E-03-1.24107E-02-2.13083E-04-1.33473E-04-6.60405E-03
 -1       954-7.37285E-03-2.60937E-03-1.27438E-02 3.00054E-04 1.11841E-04-6.63983E-03
 -1       955-2.80062E-03-1.92789E-03-1.46959E-02 6.64769E-04 9.86874E-04-5.14561E-03
 -1       956-6.33675E-03-3.35911E-03-1.67932E-02-2.65198E-04 3.69892E-04-6.50673E-03
 -1       957-6.11329E-03-1.17658E-03-1.11022E-02 2.14893E-04-3.25620E-04-7.57482E-03
 -1       958-7.12985E-03-3.47332E-03-1.63884E-02 1.56179E-04-5.41384E-04-6.50816E-03
 -1       959-2.87690E-03-2.06297E-03-1.45941E-02-6.54663E-04-1.04946E-03-5.09352E-03
 -1       960-6.04992E-03-1.14346E-03-1.09312E-02-2.35751E-04 2.11438E-04-7.46847E-03
 -1       961-1.07018E-02 2.01035E-04-3.38693E-03 1.01773E-03 1.58628E-04-5.56694E-03
 -1       962-1.35240E-02-2.74689E-03-7.93197E-03 1.31509E-04 3.18079E-04-9.37860E-03
 -1       963-1.09173E-02 1.98519E-04-3.31708E-03-9.29623E-04-2.49775E-04-5.67791E-03
 -1       964-1.35827E-02-2.84539E-03-8.02261E-03-2.66073E-04-3.27254E-04-9.41591E-03
 -1       965-1.04815E-02-4.93156E-03-1.64954E-02-4.01608E-04 5.68164E-04-9.17771E-03
 -1       966-1.05646E-02-4.10673E-03-1.56997E-02 7.43492E-05-1.51369E-04-8.51830E-03
 -1       967-1.24273E-02-3.48226E-03-1.10364E-02-1.05867E-03-4.33858E-04-7.51353E-03
 -1       968-9.34974E-03-4.22340E-03-1.59325E-02 2.93550E-04-5.46502E-06-8.82226E-03
 -1       969-1.23913E-02-3.59629E-03-1.15419E-02 9.39468E-04 4.29784E-04-7.90498E-03
 -1       970-6.93329E-03 3.00447E-04-1.32853E-05 7.53165E-04-4.43515E-05-1.69499E-03
 -1       971 5.67162E-04 9.28067E-05-8.27043E-04-1.70803E-04-3.90195E-05-2.16960E-03
 -1       972-5.08804E-03-3.96772E-04-1.29239E-03-2.16286E-04-1.79300E-04-3.24258E-03
 -1       973 2.19405E-03 2.88436E-04-3.05837E-03 1.88352E-04 6.89281E-04-1.08742E-04
 -1       974 4.92503E-03 1.07970E-04-6.13452E-04 5.57008E-05 6.36720E-05-1.58286E-03
 -1       975 5.41674E-03 1.67796E-04-1.46148E-03 5.54071E-05 1.02175E-04-2.75427E-04
 -1       976-3.64286E-05 1.65874E-04-2.34193E-03-5.08526E-05 2.99418E-05-2.46453E-03
 -1       977 3.33600E-03 1.79651E-05-1.27286E-03 1.08403E-04 1.91885E-05-1.65793E-03
 -1       978 5.26230E-03 1.06681E-04-8.04105E-04 1.50403E-04 5.90035E-06-1.41449E-03
 -1       979 4.40951E-05-1.30593E-04-2.17153E-03 3.77343E-05-3.14028E-04-2.11833E-03
 -1       980-2.82546E-03 1.97976E-04 9.09147E-04-4.86147E-04 1.66938E-04-1.21292E-05
 -1       981-2.77754E-04-1.07355E-04-1.98529E-03-8.78159E-05 8.65319E-04 1.10302E-03
 -1       982 6.04719E-03 1.61244E-04-4.93859E-04 5.78204E-05-5.13688E-05-1.26103E-03
 -1       983-3.77480E-03 4.10613E-04-4.04613E-03 7.06808E-05 6.80193E-04-3.14468E-03
 -1       984-2.74080E-04 5.12532E-05-5.95634E-03-4.51200E-06-6.52983E-04-2.01072E-03
 -1       985-5.58528E-04-9.98882E-04-4.93269E-03-1.82267E-04-1.43480E-03-1.74049E-03
 -1       986-2.40680E-04-2.28419E-04 1.75206E-03-5.42976E-06-1.36351E-07-1.43078E-03
 -1       987-7.18106E-04 8.06133E-05-1.14361E-03-1.04473E-05-1.03640E-04-1.83463E-03
 -1       988-1.36467E-03 3.13620E-04 4.01268E-03-2.27094E-04 1.06810E-04-2.84820E-04
 -1       989-8.53972E-04 7.99116E-04-4.26488E-03-3.93764E-04-3.39560E-04-1.22283E-03
 -1       990-4.02607E-03 4.55266E-04-4.02971E-03-2.68250E-04 8.87666E-05-3.04764E-03
 -1       991-3.92112E-04-2.94356E-04-2.15101E-03-1.78989E-04-1.86904E-04-2.10971E-03
 -1       992-1.91135E-04 2.25567E-05 4.28929E-03-3.03633E-04 1.80545E-04 1.73899E-03
 -1       993 6.20865E-03 1.54297E-04 5.93917E-05-2.31295E-04 2.80320E-06-5.79271E-04
 -1       994 5.30905E-03 3.27047E-05-6.17374E-04 9.07571E-07-1.23865E-04-1.14473E-03
 -1       995 5.68231E-03 9.80387E-06-2.07763E-04-1.11816E-04 5.24934E-05 1.91745E-03
 -1       996 6.09034E-03 8.49482E-05-6.61036E-04-7.70228E-05-7.71091E-05-3.74276E-04
 -1       997 5.23464E-03 1.14083E-04-1.04810E-03 1.87282E-04 6.18410E-05-9.07876E-04
 -1       998 5.70356E-03-2.89467E-05-2.88534E-04-1.46015E-04-2.36031E-05-8.42667E-04
 -1       999 5.68090E-03 1.65783E-04-6.55452E-04 1.25945E-04-3.55857E-05-1.35476E-03
 -1      1000 3.50597E-03 4.90176E-04-5.08559E-04-3.73407E-04 9.14622E-05-1.59547E-03
 -1      1001-3.00475E-03-5.13730E-04-8.27195E-04 2.92683E-04 3.03464E-04-1.93923E-03
 -1      1002 5.23583E-03 4.65984E-05-7.03263E-04 1.42426E-04 2.03791E-05-1.31197E-03
 -1      1003 3.41249E-03 1.65031E-04-4.66095E-04-1.86072E-04-3.09635E-05-1.81319E-03
 -1      1004 5.54373E-03 1.23453E-04-5.21595E-04 6.80747E-05 2.70815E-05-1.40543E-03
 -1      1005-5.67908E-03-1.90525E-04-8.63090E-04-1.18456E-04-1.09743E-04-2.21523E-03
 -1      1006-7.02849E-03-2.51349E-04-8.79710E-04 3.12145E-05-1.43594E-04-2.90901E-03
 -1      1007-2.28004E-03-1.08321E-04-1.00559E-03-5.01072E-06-1.42652E-04-2.77121E-03
 -1      1008-6.76539E-03 1.56213E-04-1.94296E-03 4.11550E-04 2.51513E-04-2.75201E-03
 -1      1009-7.27322E-03-1.17916E-04-6.48504E-03 1.85711E-04 4.78558E-04-6.30494E-03
 -1      1010-3.17246E-03-5.46658E-04-2.36596E-03-7.61157E-04-1.50803E-04-3.10011E-03
 -1      1011-4.59680E-03-5.60360E-06-1.67210E-03-4.97823E-04-2.04653E-04-3.13802E-03
 -1      1012-1.17196E-03 7.52461E-04-2.67064E-03-1.70335E-04 2.69603E-04-2.87444E-03
 -1      1013 8.88816E-04-2.14217E-04 2.08136E-03-4.86296E-06 5.74348E-04 2.72641E-03
 -1      1014 3.11898E-03-3.20246E-05 2.65931E-04 5.05625E-05 4.09957E-04 2.54960E-03
 -1      1015-2.10937E-03-4.46417E-04-1.41037E-03-2.82125E-04 4.20749E-04 5.90250E-04
 -1      1016 4.49387E-03 3.66208E-05-6.02652E-04 1.80221E-04 4.13617E-04 1.65593E-03
 -1      1017 4.14277E-03-1.08603E-04-2.02929E-03-7.71771E-05 3.98700E-04 8.62483E-05
 -1      1018 1.24950E-03 2.12688E-04-2.60144E-03-3.06432E-05 7.39132E-04 3.03031E-04
 -1      1019-4.13229E-03 2.60232E-04-5.23122E-03 2.03778E-04 4.20026E-04-2.70868E-03
 -1      1020-1.30730E-03 3.52791E-04-3.32498E-03-1.48855E-04 7.64187E-04-5.16861E-04
 -1      1021-1.54221E-04-3.14464E-05-1.78578E-03 4.65506E-05-6.65524E-05-2.43641E-03
 -1      1022 3.92744E-03-1.09774E-05-1.02858E-03 7.34208E-05 4.90939E-05-1.65179E-03
 -1      1023 2.08672E-03 7.58895E-05-1.04712E-03 9.94779E-05-5.08013E-05-1.98105E-03
 -1      1024 1.69338E-03 1.08375E-04-1.81267E-03 4.75187E-04 8.89409E-05-2.13758E-03
 -1      1025 1.54303E-03 4.33128E-04-2.44041E-03 2.75267E-04 3.10355E-04-1.13663E-03
 -1      1026 2.54313E-03-6.72516E-05-2.19148E-03 4.68285E-04 2.54294E-04-1.47478E-03
 -1      1027-3.93435E-04 5.17919E-04-3.90737E-03-1.68357E-05 4.71020E-04-1.59608E-03
 -1      1028 4.80773E-03 5.04239E-06-8.29227E-04 9.02920E-05 3.96625E-05-1.48688E-03
 -1      1029 4.19284E-03 7.71283E-06-1.05033E-03 7.45445E-05 2.68114E-05-1.50207E-03
 -1      1030 4.31349E-03 4.37929E-05-1.33424E-03 5.45798E-05 8.03671E-05-9.46396E-04
 -1      1031 8.98057E-05-2.27708E-05-1.27197E-03-1.79396E-04-1.08116E-04-2.39626E-03
 -1      1032 4.84949E-03 6.56678E-04-5.97755E-04 6.02001E-04 3.18773E-05-1.57968E-03
 -1      1033-5.40613E-03-7.84339E-04-1.24548E-03 3.37997E-04 1.84331E-04-3.09061E-03
 -1      1034 2.08597E-03 2.25713E-04-3.05900E-03-1.66893E-04-7.04777E-04-3.29043E-04
 -1      1035 5.10808E-03-2.86621E-05-1.42067E-03 1.92622E-04-2.14885E-04-2.61850E-04
 -1      1036 8.32367E-05 2.34211E-04-2.38122E-03-1.07707E-04 1.30275E-04-2.89579E-03
 -1      1037 3.40971E-03 2.49659E-05-1.20140E-03-1.14608E-04-2.21833E-05-1.79874E-03
 -1      1038 5.50062E-03 2.87601E-04-6.02421E-04 3.49311E-05 1.24199E-04-1.43217E-03
 -1      1039-9.00715E-05-1.31738E-04-2.55216E-03-4.42273E-05 4.75950E-04-2.14169E-03
 -1      1040-2.87026E-03 5.08179E-05 8.40193E-04 4.82169E-04-1.41612E-04-8.69553E-05
 -1      1041-1.96290E-04-7.15633E-05-2.11686E-03 1.31504E-04-8.70550E-04 1.01725E-03
 -1      1042 6.24776E-03 7.05783E-05-4.21578E-04 1.20189E-04-1.47721E-05-1.08882E-03
 -1      1043-3.77238E-03 3.85640E-04-4.32414E-03-2.45060E-04-8.13478E-04-3.31755E-03
 -1      1044-3.61354E-04-8.95472E-06-6.18080E-03-1.10977E-04 6.70805E-04-2.08528E-03
 -1      1045-3.90565E-04-9.71858E-04-4.57910E-03 1.62234E-04 1.41192E-03-1.53706E-03
 -1      1046-4.81978E-04-3.13736E-04-2.41413E-03 1.89028E-04 2.49431E-04-2.08326E-03
 -1      1047-2.57297E-04-1.43852E-04 1.77805E-03 1.42339E-05 1.56549E-07-1.56282E-03
 -1      1048-9.48727E-04-6.82483E-05-1.45830E-03 8.41507E-06 2.56843E-04-1.95402E-03
 -1      1049-1.40347E-03 2.51801E-04 4.04206E-03 2.58380E-04-6.94450E-05-4.21787E-04
 -1      1050-9.49178E-04 7.14940E-04-4.46306E-03 3.94889E-04 4.13648E-04-1.26459E-03
 -1      1051-4.08501E-03 4.21723E-04-4.24698E-03 3.00587E-04-4.95663E-05-3.12429E-03
 -1      1052 5.51597E-03 3.39359E-05-3.83817E-04-4.80498E-05 4.40335E-05-9.04085E-04
 -1      1053 6.05925E-03 6.89557E-05-1.23975E-04 3.10598E-04-5.07806E-05-4.14143E-04
 -1      1054 5.55855E-03-3.30265E-05-8.02140E-05 1.92454E-04-2.19712E-05 1.86092E-03
 -1      1055 6.02472E-03-6.52214E-05-6.25259E-04 1.66656E-04-2.00929E-05-4.29596E-04
 -1      1056 5.26368E-03 1.57505E-04-9.07638E-04 4.57465E-05 2.53318E-05-1.00934E-03
 -1      1057 5.78245E-03 1.37008E-04-3.15927E-04 1.51954E-04 9.88543E-05-7.01328E-04
 -1      1058 5.84236E-03 1.89441E-04-5.40996E-04 9.76600E-05-4.02125E-06-1.30727E-03
 -1      1059-1.69087E-04 5.35522E-05 4.28882E-03 2.81894E-04-1.90438E-04 1.70260E-03
 -1      1060 4.32312E-03 1.32110E-03-1.88142E-04 7.39451E-04-1.09630E-04-1.51702E-03
 -1      1061-3.67197E-03-6.04538E-04-1.06146E-03-6.19046E-04-2.86530E-04-2.24144E-03
 -1      1062-7.28362E-03-4.96887E-04-1.00954E-03 9.93473E-05 1.02877E-04-2.75009E-03
 -1      1063-5.59093E-03-3.17270E-04-6.92274E-04 2.18027E-04 1.19828E-04-2.08975E-03
 -1      1064-2.89722E-03-4.11043E-04-1.15052E-03-4.60987E-04-1.98305E-05-2.78937E-03
 -1      1065 3.29479E-03 9.90661E-04-7.15068E-04 6.41622E-04 1.40826E-04-1.59611E-03
 -1      1066 4.84990E-03 7.20265E-04-5.59527E-04 5.12226E-04 2.25492E-05-9.93166E-04
 -1      1067 6.16662E-03 9.47418E-05-3.61399E-04 2.53208E-04-8.15246E-05-1.50335E-03
 -1      1068-7.12877E-03-1.42437E-04-6.67723E-03-3.96604E-04-5.81474E-04-6.44203E-03
 -1      1069-7.04888E-03 6.81223E-05-2.26276E-03-4.78722E-04-3.93956E-04-2.80138E-03
 -1      1070-2.84166E-03-3.09772E-04-2.28494E-03 5.68962E-04 4.16696E-04-3.11523E-03
 -1      1071-4.60526E-03 2.88308E-04-1.96612E-03 3.32050E-04 4.12759E-04-3.30662E-03
 -1      1072-1.11759E-03 8.28510E-04-3.02516E-03-1.25065E-04-2.35856E-04-3.30146E-03
 -1      1073 3.20392E-03-4.29241E-05 2.96010E-04-3.54355E-05-3.94462E-04 2.49508E-03
 -1      1074 9.10075E-04-1.56321E-04 1.98918E-03 7.18915E-05-5.18634E-04 2.66056E-03
 -1      1075-2.10857E-03-4.94660E-04-1.53413E-03 3.16225E-04-3.92252E-04 5.10572E-04
 -1      1076 3.94321E-03-5.01834E-05-1.92494E-03 1.67379E-04-4.25559E-04-9.45719E-05
 -1      1077 4.36390E-03-1.18024E-05-6.00720E-04-1.58054E-04-3.97031E-04 1.60805E-03
 -1      1078 1.35269E-03 1.89293E-04-2.61442E-03 4.61524E-05-7.70933E-04 1.70055E-04
 -1      1079-4.17241E-03 2.02356E-04-5.42001E-03-2.12925E-04-4.60460E-04-2.77038E-03
 -1      1080-1.20239E-03 4.52109E-04-3.41057E-03 9.11979E-05-8.89513E-04-6.02080E-04
 -1      1081 4.55406E-03 2.75571E-04-8.98378E-04 2.58634E-04 9.07526E-05-1.63259E-03
 -1      1082 2.32925E-03 2.62066E-04-1.15735E-03 1.66364E-04 6.59512E-05-1.92317E-03
 -1      1083 3.80792E-04 9.46739E-05-1.75228E-03-5.00463E-05 8.99838E-06-2.51748E-03
 -1      1084 1.89792E-03 3.55804E-05-1.51327E-03-3.27631E-04-8.18241E-05-2.32496E-03
 -1      1085 4.37363E-03 1.34652E-04-9.25708E-04-3.07105E-05 1.08224E-04-1.62658E-03
 -1      1086 5.49326E-03 2.32184E-04-5.29854E-04 3.13362E-04 5.34267E-05-1.58661E-03
 -1      1087 2.64117E-03-7.39412E-05-1.85703E-03-2.24134E-04-2.44215E-04-1.63077E-03
 -1      1088 1.30218E-03 3.33746E-04-2.54351E-03-2.85777E-04-3.49075E-04-1.61067E-03
 -1      1089-5.31988E-04 4.06323E-04-4.03333E-03-5.98494E-05-5.79511E-04-1.88533E-03
 -1      1090 4.26478E-03 2.86447E-05-1.22716E-03 6.08495E-05-9.66655E-05-1.07980E-03
 -1      1091-2.66934E-05 3.72160E-05 2.45479E-03 2.24924E-05 2.85792E-05 2.27842E-03
 -1      1092 7.86917E-03 9.48639E-05 7.45101E-04 3.48738E-04 1.24275E-04 4.72936E-03
 -1      1093 4.46969E-04-2.58421E-05 2.20859E-03-3.10110E-06 4.98447E-05 1.83551E-03
 -1      1094 1.98578E-03 4.67033E-05 2.31295E-03 2.30417E-05 1.10052E-04 3.62324E-03
 -1      1095-1.39669E-03 1.42644E-05 1.50611E-03-3.58855E-05-2.48665E-05 7.58615E-04
 -1      1096 6.79366E-04 1.42981E-04 2.01980E-03-7.78123E-05-1.50744E-04 1.40502E-03
 -1      1097-2.10639E-03-1.05774E-04 1.08299E-03-1.24023E-04 3.58271E-05 6.35214E-04
 -1      1098-1.32465E-03-6.28766E-05 1.56662E-04-1.80993E-04-4.55768E-05-2.94729E-05
 -1      1099-6.46731E-04 1.98146E-04 1.81839E-03-1.19508E-04-1.48348E-04 9.55069E-04
 -1      1100 1.47167E-02-6.65947E-04-1.09146E-03 7.69519E-04-4.11183E-04 8.98927E-04
 -1      1101 1.45884E-02 5.08668E-04 8.06534E-05 1.17472E-03 6.87000E-05 3.15210E-03
 -1      1102 2.09142E-03 2.30996E-04 2.19700E-03 1.43918E-04 4.48621E-04 4.08524E-03
 -1      1103-1.16763E-03-1.40907E-04 1.65818E-03-4.53354E-05 3.60319E-04 2.19802E-03
 -1      1104 6.06597E-04 1.69702E-05 2.38470E-03 2.23744E-05 6.69241E-05 2.85881E-03
 -1      1105-1.13300E-03 1.38168E-04 1.89553E-03 4.88344E-05 6.34099E-05 1.59378E-03
 -1      1106-6.59878E-04 5.08389E-05 2.06650E-03 5.37450E-05 6.48555E-05 1.49773E-03
 -1      1107-6.87641E-05 8.29317E-05 2.21270E-03-2.07839E-05-9.93119E-05 1.45542E-03
 -1      1108 3.39176E-04 8.04927E-05 2.36515E-03-3.85802E-05-1.47028E-04 1.69070E-03
 -1      1109 7.82792E-04-2.14431E-05 1.74397E-03-1.34618E-05 5.46452E-05 1.48606E-03
 -1      1110 2.58173E-04 2.71770E-05 2.32819E-03-3.07321E-05 5.95248E-05 2.01226E-03
 -1      1111-2.65085E-04 7.53787E-05 2.16157E-03-1.70575E-05-2.77235E-05 1.56241E-03
 -1      1112 1.09918E-02 1.25233E-03 7.10912E-04 1.31792E-03 8.26414E-05 4.51273E-03
 -1      1113 3.86230E-03 4.95579E-05 7.80586E-04 5.97324E-04 7.05136E-04 4.50079E-03
 -1      1114 8.81829E-03 8.51306E-05 1.63321E-03 1.21188E-05 9.58775E-05 4.37670E-03
 -1      1115 5.67618E-03 1.58830E-04 2.19137E-03 9.70697E-05 3.79165E-04 4.11977E-03
 -1      1116 5.63389E-03-1.37168E-04 1.97611E-03-3.01486E-05 1.21161E-04 3.89283E-03
 -1      1117 1.21128E-02 6.14985E-05 5.85569E-04 2.16662E-04-3.43770E-05 4.42741E-03
 -1      1118 1.56910E-03 1.35061E-05 1.83391E-03-1.21435E-05 1.79867E-05 1.92026E-03
 -1      1119 2.42401E-03-5.93379E-06 2.09737E-03 2.30416E-05 4.99770E-05 2.70237E-03
 -1      1120 1.45642E-03 6.61768E-05 2.08345E-03 1.37524E-06 2.48086E-05 2.14933E-03
 -1      1121 3.65176E-03 7.67592E-05 2.00272E-03-4.46147E-05 8.28413E-05 3.16499E-03
 -1      1122 2.04053E-04-6.83946E-05 2.48183E-03 1.31836E-05-5.42238E-06 2.23693E-03
 -1      1123 8.28471E-03-1.08220E-04 3.24640E-04-1.85557E-04-9.10136E-05 4.78597E-03
 -1      1124 4.04014E-04-2.69392E-05 2.20566E-03 3.58429E-05 5.03868E-05 1.83310E-03
 -1      1125 1.90681E-03 3.63851E-06 2.55486E-03-1.93475E-05-4.22063E-05 3.55906E-03
 -1      1126-1.20853E-03 6.22497E-06 1.42891E-03 1.37521E-04 3.62222E-05 8.05060E-04
 -1      1127 6.73296E-04 3.57376E-04 2.02627E-03 2.98177E-04 3.59876E-04 1.44729E-03
 -1      1128-2.11533E-03-1.20721E-04 9.07813E-04 3.51747E-04-2.35971E-04 8.35088E-04
 -1      1129-1.21876E-03-6.94510E-05 3.74607E-04 2.01547E-04 1.18746E-05 9.71706E-05
 -1      1130-6.02859E-04 3.10196E-04 1.88175E-03 1.97746E-04 2.47638E-04 9.04051E-04
 -1      1131 1.44013E-02-6.75221E-04-8.89863E-04-8.26490E-04 3.05299E-04 9.95452E-04
 -1      1132 1.38718E-02 6.49471E-04 2.72882E-04-1.35803E-03-2.36878E-05 3.16441E-03
 -1      1133 1.68869E-03 2.64470E-04 2.47339E-03-1.76183E-05-2.21421E-04 3.94209E-03
 -1      1134-1.03784E-03-6.41904E-05 2.09438E-03 2.88377E-04-1.80690E-04 2.49290E-03
 -1      1135 7.33602E-04-1.29873E-04 2.53124E-03-2.36013E-05 3.02219E-05 2.82596E-03
 -1      1136-1.21860E-03-1.44584E-04 1.82681E-03 2.84626E-04-1.69017E-04 1.63236E-03
 -1      1137-6.09186E-04-6.14292E-05 2.04000E-03 9.39129E-05 4.89671E-05 1.51039E-03
 -1      1138-3.43832E-05 1.50979E-04 2.24356E-03 2.15481E-04 3.44831E-04 1.46781E-03
 -1      1139 3.75390E-04 2.40105E-04 2.34002E-03 2.53278E-04 3.40229E-04 1.70952E-03
 -1      1140 7.51073E-04-7.04234E-06 1.80433E-03 5.70148E-05 7.90407E-05 1.50320E-03
 -1      1141-2.28946E-04 1.32017E-04 2.18387E-03 1.49443E-04 2.27061E-04 1.55848E-03
 -1      1142 2.92437E-04-2.12860E-05 2.34536E-03 1.78623E-05 3.01854E-05 2.03077E-03
 -1      1143 1.05428E-02 7.38600E-04-2.19450E-04-8.04111E-04 1.45649E-04 3.93206E-03
 -1      1144 4.77210E-03 7.69606E-05 9.34415E-04-3.41415E-04-4.20373E-04 4.79158E-03
 -1      1145 8.99511E-03-1.48277E-04 1.32575E-03 1.68322E-05-1.08690E-04 4.34966E-03
 -1      1146 5.28342E-03-5.15496E-05 1.52880E-03-7.12945E-05-2.65384E-04 3.98177E-03
 -1      1147 5.71021E-03 3.81686E-05 1.98405E-03 4.27694E-05 2.59297E-05 3.81401E-03
 -1      1148 1.20788E-02 7.01291E-05 4.37703E-04-2.44268E-04 2.94193E-05 4.41031E-03
 -1      1149 1.44672E-03 3.98654E-05 1.81634E-03 8.63401E-06 1.21908E-05 1.89481E-03
 -1      1150 1.41902E-03 3.43422E-06 2.04257E-03 4.28228E-06 1.98686E-05 2.13967E-03
 -1      1151 2.51280E-03 2.75581E-05 2.14534E-03 3.50418E-05 2.03718E-05 2.75502E-03
 -1      1152 3.77355E-03 1.10492E-04 2.09470E-03-4.52721E-06 1.55650E-06 3.23017E-03
 -1      1153 2.46748E-05 1.58958E-04 1.74436E-03 2.84197E-04-2.35730E-04-4.59992E-04
 -1      1154-1.29617E-05-1.12268E-04-6.35250E-04 1.11809E-05 1.43795E-04-8.87076E-04
 -1      1155-5.38304E-04-5.10132E-04-3.87808E-04 2.01844E-04-1.23419E-04-6.44313E-04
 -1      1156 1.45504E-05 2.76221E-04 4.50592E-03 3.87152E-05 1.48550E-05-4.33414E-04
 -1      1157-9.13653E-04 1.98363E-06 1.59659E-03 6.02217E-04-4.95459E-04-3.18203E-04
 -1      1158-7.03335E-05 2.20982E-04 1.89242E-03-3.07103E-04 2.83892E-04-6.43710E-04
 -1      1159-6.57786E-04-5.42607E-04-3.50836E-04-2.46419E-04 1.77719E-04-6.51967E-04
 -1      1160 4.95163E-05-8.70247E-05-6.58098E-04-2.76596E-06-1.82585E-04-8.69309E-04
 -1      1161-1.25563E-03-1.44266E-04 1.08345E-03-5.20532E-04 5.41943E-04-2.50867E-04
 -1      1162 6.30290E-05 2.68743E-04 4.27237E-03-6.86825E-05-4.82572E-05-4.73350E-04
 -1      1163 2.23313E-04-3.97813E-05-6.57025E-04 1.37228E-04-1.98085E-04-1.43795E-03
 -1      1164-1.03354E-02-1.99005E-03-5.14807E-03-3.54179E-04-7.54773E-04-4.68492E-03
 -1      1165-5.96927E-03-1.21168E-03-3.60435E-03-5.75703E-04-1.76929E-04-3.25029E-03
 -1      1166-4.49253E-03-9.47783E-04-4.73262E-03-1.74633E-04-5.14960E-04-2.28499E-03
 -1      1167-2.48955E-04-2.30304E-05-3.35099E-04 6.39556E-05 1.09758E-05-4.91922E-04
 -1      1168 1.56069E-05-2.38558E-06-3.50105E-04 1.87931E-05-2.68478E-05-5.89805E-04
 -1      1169 1.37848E-03-1.58667E-04-5.16838E-04 2.41073E-05-5.73943E-05-7.82804E-04
 -1      1170-1.11803E-03 1.58158E-04-3.77402E-04 1.36205E-05-5.71062E-05-8.92375E-04
 -1      1171 9.22734E-04-1.34738E-04-4.76809E-04 1.00670E-04-5.72121E-05-7.16947E-04
 -1      1172-8.08565E-03-8.98074E-04-4.67681E-04-6.95611E-04 3.19998E-04-4.85203E-04
 -1      1173-1.27078E-04 1.04379E-05-3.29686E-04-4.95931E-05 2.70995E-05-6.45582E-04
 -1      1174 4.11325E-04 7.04472E-05-4.27596E-04-1.19510E-04 2.55118E-05-8.22415E-04
 -1      1175 4.28630E-04 9.08215E-05-3.84854E-04-6.08928E-05 1.13875E-04-7.36781E-04
 -1      1176-8.46528E-05-3.09020E-05-2.87515E-04 2.60696E-05 5.17978E-05-5.37410E-04
 -1      1177 1.98305E-03-2.28191E-04-6.41523E-04-1.59968E-04-1.83103E-05-1.09880E-03
 -1      1178-1.82621E-04-2.08529E-05-2.66690E-04 2.91633E-05-1.14797E-05-3.86639E-04
 -1      1179-1.85315E-04 1.34041E-05-2.59944E-04-2.31999E-05 5.16263E-06-4.61362E-04
 -1      1180-2.76988E-03-2.02239E-04-5.17813E-04 2.02813E-04 7.73674E-05-1.44164E-03
 -1      1181-2.68976E-03 7.10286E-05-1.61498E-04-1.27303E-04-1.99071E-04-1.21940E-03
 -1      1182 1.81706E-03-3.14274E-04-7.13439E-04 3.11552E-04-2.12221E-04-8.30882E-04
 -1      1183 9.74293E-04 1.73045E-04-8.34934E-04-1.76510E-04-1.72485E-04-1.06713E-03
 -1      1184 4.66319E-03 3.33413E-04-1.24133E-03-3.61348E-04 1.01904E-04-7.03439E-04
 -1      1185-4.46145E-03 1.52540E-04-1.56411E-03 3.92642E-04-1.47190E-04-2.84398E-03
 -1      1186-2.94431E-03 3.62173E-05-6.06214E-04 4.45569E-04-1.26828E-04-2.26683E-03
 -1      1187 3.35812E-03 6.49658E-05-1.29310E-03-4.90826E-04-1.29870E-04-9.05031E-04
 -1      1188-5.75907E-03 2.52015E-04-3.66916E-04 7.05719E-04 5.94479E-06-2.78632E-03
 -1      1189-6.84625E-04-2.30108E-04-5.72507E-04 4.17056E-05 1.62068E-04-1.08168E-03
 -1      1190 6.18390E-05 1.75475E-05-2.91900E-04 3.98647E-06 2.71916E-05-3.17970E-04
 -1      1191-8.14552E-04 1.32341E-04-2.91768E-04-8.18469E-05-5.28019E-05-6.63912E-04
 -1      1192-3.07533E-03-2.94048E-04-5.88141E-04 3.41570E-04 1.33689E-04-1.92719E-03
 -1      1193-5.71759E-03-2.16857E-05-6.90757E-04 2.46847E-04-1.15593E-04-2.42472E-03
 -1      1194-1.25979E-03 2.13864E-05-3.89593E-04-2.24354E-04-1.52040E-04-8.71411E-04
 -1      1195 8.34751E-05 2.12501E-05-3.04691E-04-4.96825E-06-3.02078E-05-2.90403E-04
 -1      1196-4.77219E-03-3.03973E-04 4.88784E-04 1.04804E-03 2.64324E-04-8.03368E-04
 -1      1197 2.95764E-04 3.81123E-04-4.66114E-04 6.83440E-05 5.67342E-05-9.56647E-04
 -1      1198-2.38379E-03-6.79496E-05-2.94206E-04 1.67546E-04 2.05153E-04-1.54539E-03
 -1      1199-2.77080E-04-5.14441E-04-2.72607E-03 4.86466E-04 1.20139E-04-1.79485E-03
 -1      1200 5.10303E-03 4.88679E-04-1.30421E-03 5.83889E-04-2.98525E-04 4.89966E-04
 -1      1201 3.20411E-03 2.40609E-04-1.34525E-03 3.03574E-04 4.92131E-05-9.49754E-04
 -1      1202 1.50905E-03-6.09119E-05-4.23273E-04 2.78762E-04-1.33783E-04-8.12452E-04
 -1      1203 3.14063E-03 4.86759E-04-1.02559E-03 5.20915E-04 2.55961E-04-7.48972E-04
 -1      1204 2.92886E-03 3.36303E-04-6.38544E-04 4.71913E-04 8.78340E-05-3.99155E-04
 -1      1205 2.46051E-04 3.73389E-05-1.00360E-03 1.79307E-04-1.69713E-04-1.79100E-03
 -1      1206 7.52755E-04 3.14415E-04-1.21789E-03 2.62172E-04-8.87090E-05-2.07228E-03
 -1      1207-4.05051E-03-4.03730E-04 1.33019E-04 8.94164E-04 1.56817E-04-8.08527E-04
 -1      1208-7.45962E-03-1.51383E-03-3.90408E-03 3.87305E-04 3.44130E-04-3.28081E-03
 -1      1209-1.05196E-02-1.98745E-03-5.06758E-03 1.05877E-04 8.03921E-04-4.89731E-03
 -1      1210-4.70440E-03-7.51364E-04-4.27200E-03 1.30108E-04 6.99960E-04-2.01392E-03
 -1      1211-1.37159E-04 2.35179E-04-1.18723E-04 1.18712E-05-2.42385E-05-1.41579E-04
 -1      1212 1.15288E-04 4.86468E-05-3.27473E-04 5.99701E-05 2.68202E-06-3.26764E-04
 -1      1213 1.52845E-04-2.21030E-04-5.50306E-04 2.84459E-05 2.31927E-05-1.40253E-04
 -1      1214-1.43702E-04 1.98346E-04-8.64814E-05-2.82615E-05 1.51751E-05-1.00332E-04
 -1      1215 1.31945E-04-1.87440E-04-5.03624E-04-1.25677E-05-2.72582E-05-1.03485E-04
 -1      1216-8.73048E-06-5.29631E-05-2.44243E-05-6.32482E-06-4.88718E-05-1.80846E-05
 -1      1217-2.59778E-05-1.17014E-04-2.26157E-05-1.29708E-05-5.89895E-05-1.30768E-05
 -1      1218-4.19043E-06-1.30493E-04 1.83615E-05-2.48228E-05-2.83443E-05 3.24305E-06
 -1      1219-6.37576E-06-1.32063E-04-1.74539E-05 4.55008E-06-1.20348E-04-1.93025E-05
 -1      1220 1.54775E-06-7.38319E-05 7.40208E-06-1.66984E-05-3.01318E-05-4.23456E-06
 -1      1221-1.77744E-05-9.60085E-05-2.93199E-05-2.43446E-05-5.13525E-05-1.61848E-05
 -1      1222 6.09252E-03 1.20030E-04-8.76997E-04 6.73823E-04-7.78090E-05 5.27096E-04
 -1      1223 6.46751E-03 2.64366E-04-7.53432E-04-7.28544E-04-4.65721E-05 3.80555E-04
 -1      1224-3.59072E-03-3.09501E-04-2.55512E-06 8.20038E-04 1.90917E-04-6.80371E-04
 -1      1225-7.59356E-03-6.95268E-04-5.98529E-04 9.26319E-04 1.83761E-04-1.10700E-03
 -1      1226-2.17100E-04-1.38438E-05-3.04778E-04-1.14487E-04-2.16246E-05-4.90418E-04
 -1      1227-3.49073E-05-2.29253E-05-3.34468E-04-1.96429E-05-4.44153E-05-6.09791E-04
 -1      1228 5.38375E-03 1.40795E-04-9.70781E-04-6.24670E-04-9.76036E-05-3.47902E-04
 -1      1229 4.48819E-03 2.16718E-05-1.07933E-03 3.73923E-04 7.24120E-05-4.77773E-04
 -1      1230-7.52484E-03-1.93381E-03-5.08252E-03 1.71746E-04-6.89147E-04-3.11596E-03
 -1      1231-1.64949E-06 2.08790E-05 1.16577E-06 1.27003E-05-1.47679E-05-8.00753E-06
 -1      1232-2.01885E-06 1.07485E-05-6.90864E-07 1.12771E-05-7.20668E-06-9.20929E-06
 -1      1233-1.88457E-07 1.00962E-05 3.28756E-06 7.72247E-06-9.88868E-06-1.32111E-05
 -1      1234 1.69276E-07 1.51210E-05 3.76839E-06 5.10668E-06-1.72614E-05-9.70361E-06
 -1      1235 5.31091E-03 3.17671E-04-1.51739E-03-5.35618E-04 3.16292E-04 4.41493E-04
 -1      1236 1.44516E-03-3.29003E-05-6.65544E-04-2.53662E-04 2.01264E-04-8.02350E-04
 -1      1237-7.43444E-04 1.76105E-04-2.64412E-05 1.49012E-04 1.61407E-04-5.06517E-04
 -1      1238 6.63670E-04-1.14679E-04-3.19275E-04-1.39876E-04 6.94243E-05-4.97320E-04
 -1      1239 5.98241E-03 6.98349E-05-7.24364E-04 9.86062E-04-4.20141E-05 3.37910E-04
 -1      1240 6.31021E-03-1.20217E-04-1.16206E-03 4.41302E-04-6.61089E-05 1.12451E-03
 -1      1241 1.18710E-02 2.22145E-03 1.32905E-03 1.25869E-03 3.53993E-04 1.94589E-03
 -1      1242 4.06292E-03 3.20083E-04-6.21912E-04 6.43236E-04 1.68249E-05-3.27892E-04
 -1      1243 4.71357E-03 2.36026E-04-1.05088E-03-2.69887E-04-1.53549E-04-7.41791E-04
 -1      1244-4.32630E-03 7.88364E-06-1.38821E-03-4.18934E-04 1.40388E-04-2.61492E-03
 -1      1245-7.55822E-03 4.02558E-04-2.10965E-03-8.59523E-04-5.83643E-04-2.77840E-03
 -1      1246-2.00196E-05-1.08309E-04-3.12842E-05 2.69344E-05 5.31405E-05-1.59961E-05
 -1      1247-7.17058E-06-5.54082E-05-2.23594E-05 6.47272E-06 5.30641E-05-1.56501E-05
 -1      1248-2.80022E-05-1.27470E-04-2.54114E-05 1.41408E-05 6.03370E-05-1.16084E-05
 -1      1249-5.53591E-04 1.21047E-04-1.90843E-05 6.97269E-05-7.55621E-05-4.61011E-04
 -1      1250 5.97526E-04-1.20570E-04-3.37944E-04-6.29762E-05-7.21511E-05-4.96806E-04
 -1      1251 2.30932E-04-1.74306E-04-4.65405E-04 9.75045E-06-9.85152E-05-3.89824E-04
 -1      1252-1.02084E-05-1.33996E-04-1.95487E-05-4.19404E-06 1.26301E-04-2.01661E-05
 -1      1253-1.15687E-06-1.31317E-04 2.10725E-05 2.34805E-05 2.57786E-05 3.33488E-06
 -1      1254 9.31581E-06-8.51618E-05 8.46666E-06 1.63829E-05 3.00566E-05-5.70169E-06
 -1      1255-1.39651E-03-8.56055E-04-3.03073E-03-3.73831E-04 1.39389E-04-2.05104E-03
 -1      1256-1.61359E-06 1.58605E-06 5.65483E-06 1.05503E-06-8.18505E-06-2.47733E-05
 -1      1257-3.76669E-06-8.66870E-08-2.38988E-06 6.58042E-06 6.16640E-07-1.30651E-05
 -1      1258 4.69281E-08 6.10419E-06 4.59594E-06 8.74466E-06-8.35611E-06-1.51929E-05
 -1      1259-4.98190E-06-2.44432E-07 1.50036E-06 6.78545E-06-3.44769E-07-1.29350E-05
 -1      1260 1.35475E-04 4.24148E-05 1.62598E-05 2.08164E-04-2.12640E-04-1.20250E-03
 -1      1261-4.65514E-04-7.06783E-05 2.36644E-04 3.73781E-04-3.74231E-04-8.51519E-04
 -1      1262-8.16812E-04-3.12641E-04-6.00979E-03 5.27189E-05-8.49864E-04-2.22413E-03
 -1      1263-1.91775E-03 8.66610E-05-3.61071E-03 4.50572E-04-6.43080E-04-1.50283E-03
 -1      1264-1.06437E-03 1.04257E-04-3.59845E-03 2.75842E-04-6.01055E-04-1.64035E-03
 -1      1265 3.29343E-06 2.60986E-05 3.66931E-06-5.93534E-06 2.02028E-05-6.83478E-06
 -1      1266 9.59110E-07 1.28023E-05 3.57819E-06-5.22116E-06 1.64770E-05-8.68656E-06
 -1      1267 1.67203E-06 4.44841E-05-1.18102E-06-1.04174E-05 1.67126E-05-9.65382E-07
 -1      1268-1.77997E-06 3.31903E-05-8.48086E-07-9.97704E-06 1.55361E-05-1.13049E-06
 -1      1269 5.09396E-06 3.87682E-05 4.08742E-06-2.40703E-06 3.68789E-05-9.80793E-06
 -1      1270 1.69444E-05 1.18238E-04-6.42581E-05-1.32495E-04 2.35002E-04-1.29668E-03
 -1      1271-4.38886E-04-3.57136E-04-1.78174E-03-8.09990E-05 3.82286E-04-1.42309E-03
 -1      1272-2.57138E-06-1.57108E-04-4.59833E-03-9.65279E-05 1.03358E-03-1.33116E-03
 -1      1273-2.63761E-04-4.31298E-04-3.44574E-03-2.03006E-04 6.24723E-04-9.82415E-04
 -1      1274 3.70484E-05 9.91458E-05-2.09187E-03-2.33420E-04 7.54292E-04-1.04569E-03
 -1      1275 1.92741E-06 2.06325E-05 7.41778E-07-8.41858E-06 1.33815E-05-7.66852E-06
 -1      1276-1.61398E-03 5.19910E-05-5.30728E-05 2.94173E-04 1.72127E-04-8.89772E-04
 -1      1277 2.26345E-03-3.66508E-04-1.97443E-03-5.53679E-05-1.87397E-04-1.28766E-03
 -1      1278 2.23081E-03-3.31522E-04-2.03668E-03 5.20932E-05 1.06120E-04-1.47457E-03
 -1      1279 1.91830E-03 4.95604E-04 2.26536E-04-2.65551E-04-3.07353E-04-8.52193E-04
 -1      1280-9.24829E-03-1.52568E-03-1.67265E-03 1.07532E-04-2.60206E-04-2.01477E-03
 -1      1281-2.48903E-05-1.57841E-04-3.91835E-05-3.23853E-05-9.06351E-05-2.34365E-05
 -1      1282-7.28418E-06-1.71930E-04-4.10744E-05-8.63394E-06-1.66325E-04-3.06113E-05
 -1      1283 5.68344E-03 2.11006E-04-7.54679E-04-8.10698E-04 9.25314E-05 1.12266E-04
 -1      1284 4.49563E-03 3.29682E-04-2.74077E-04-8.09199E-04-2.57256E-04 4.31818E-04
 -1      1285 8.74736E-04 3.33152E-04-3.86626E-04-1.55418E-04 1.00267E-04-1.07370E-03
 -1      1286-2.21663E-04 9.62802E-05-5.13892E-04 1.46806E-05-1.65074E-04-8.34475E-04
 -1      1287-2.17588E-03-2.68175E-05 2.01946E-04-6.39931E-04-1.77398E-04-4.04917E-04
 -1      1288-9.58337E-04 1.18151E-04-1.43832E-05-2.18524E-04-2.13498E-04-6.00756E-04
 -1      1289 7.37517E-04-5.03940E-04-2.59089E-03-7.96449E-04-8.18687E-05-1.69336E-03
 -1      1290 6.21799E-04 2.96166E-04-1.49263E-04-2.38585E-04-4.06281E-05-1.14934E-03
 -1      1291 1.19902E-02 1.89838E-03 6.45468E-04-7.99850E-04-1.76926E-04 1.41878E-03
 -1      1292 1.78877E-03 1.68701E-04-7.66245E-04 3.97137E-04-1.04017E-04-8.89845E-04
 -1      1293 1.72219E-03 3.13824E-04-7.34587E-04 3.88430E-04-7.62801E-05-1.42240E-03
 -1      1294 1.61041E-04-2.04310E-04-5.46098E-04 1.64641E-05 1.01504E-04-1.63658E-04
 -1      1295-1.46677E-04 2.27892E-04-6.51722E-05-2.64946E-05 1.13468E-04-1.11084E-04
 -1      1296-5.58670E-06-6.29757E-05-1.84658E-05 1.89928E-05 5.73434E-05-1.14096E-05
 -1      1297-2.01100E-04 1.92012E-04-8.18871E-05 1.49102E-05-8.65071E-05-3.66776E-04
 -1      1298-3.79055E-05-1.48762E-04-5.32167E-05-3.17338E-05-8.18515E-05-2.37855E-05
 -1      1299-2.11958E-04 2.70106E-04-2.58857E-03-1.30917E-04 4.25117E-04-1.04156E-03
 -1      1300-5.52426E-04-5.70405E-05-3.72769E-03-4.40467E-05 2.23406E-04-8.74069E-04
 -1      1301-6.77452E-04 1.21138E-04-2.77195E-05-1.14502E-04 4.00930E-05-5.12844E-04
 -1      1302 3.20214E-04-1.79473E-04-4.96789E-04 7.30072E-06 9.02083E-05-4.16607E-04
 -1      1303-2.23158E-04 2.14659E-04-5.76467E-05-1.14844E-05 9.29559E-05-3.63727E-04
 -1      1304 6.72647E-04-1.31951E-04-3.82137E-04 1.08671E-04 6.84106E-05-4.89203E-04
 -1      1305-2.67014E-05-1.74025E-04-4.56008E-05 3.40573E-05 9.59397E-05-2.49353E-05
 -1      1306-1.29315E-05-1.84533E-04-5.20581E-05 1.19268E-05 1.71774E-04-3.20092E-05
 -1      1307-1.75290E-04 1.89317E-04-1.40875E-04 2.41991E-05-1.03324E-04-1.62156E-04
 -1      1308 1.51560E-04-1.84484E-04-5.29120E-04-1.40708E-05-1.10471E-04-1.26783E-04
 -1      1309 4.81547E-03 4.87035E-04-8.01762E-04 7.40287E-04 2.97559E-04-2.22277E-04
 -1      1310 4.87401E-03 1.65475E-04-8.84467E-04 5.36176E-04 9.86371E-05-7.59176E-04
 -1      1311 1.80243E-03 2.08408E-05-1.05324E-03 3.59189E-04-8.80807E-05-8.23603E-04
 -1      1312-4.13939E-05-1.58864E-04-5.85410E-05 3.69169E-05 8.74797E-05-2.76217E-05
 -1      1313-7.80620E-03-1.95504E-03-4.93214E-03-1.88477E-04 7.51935E-04-3.05350E-03
 -1      1314 1.74906E-08 3.79125E-05-8.11044E-06-8.91798E-06 7.13735E-06-5.63762E-07
 -1      1315 2.24381E-03 9.83537E-05-5.89131E-04 5.28546E-04-4.58920E-05-2.11430E-04
 -1      1316 8.73323E-04-1.29252E-04-3.85890E-04 1.82232E-04-1.27798E-04-5.23965E-04
 -1      1317-2.22278E-04-1.59901E-04-1.41950E-03 5.37243E-05-2.40849E-04-1.44237E-03
 -1      1318-5.34620E-04-1.54585E-04-5.88563E-03-1.51201E-04 7.37482E-04-2.14209E-03
 -1      1319-5.75817E-04 2.30105E-04-3.04905E-03-2.90107E-04 6.43263E-04-1.58062E-03
 -1      1320 3.54757E-06-1.84937E-05-2.62160E-05 9.21048E-06 6.69543E-05-2.89705E-05
 -1      1321 4.20230E-06-1.67450E-05-6.57514E-06 8.81341E-06-8.97654E-06-2.18976E-05
 -1      1322 1.05859E-05-1.67656E-06-1.75329E-08 1.31342E-05-5.38421E-06-1.12605E-05
 -1      1323-2.08473E-05-8.39366E-05-1.22621E-05 3.02904E-05 6.34278E-05-1.83698E-05
 -1      1324-1.65461E-05-5.37935E-05-1.18729E-05 2.24247E-05 4.25070E-05-1.93558E-05
 -1      1325-1.74564E-05-6.04545E-05-2.35962E-05 2.33553E-05 5.24943E-05-1.64975E-05
 -1      1326-8.59965E-07 1.07119E-05 4.07485E-06-9.20816E-06 1.43261E-05-1.14964E-05
 -1      1327-4.38235E-06 2.58688E-06 3.24095E-06-2.45219E-06 1.52369E-05-1.99144E-05
 -1      1328-6.24979E-06 2.07244E-08 1.03556E-06-7.41666E-06-9.84021E-07-1.26021E-05
 -1      1329-3.12550E-06 5.33687E-06 1.48274E-06-4.64591E-06-9.27695E-07-1.35341E-05
 -1      1330-1.43713E-06 6.89925E-06 1.68879E-06-8.30396E-06 6.04362E-06-1.32670E-05
 -1      1331-4.14309E-06 9.01496E-07-5.09320E-08-3.46521E-07 6.48517E-06-2.10730E-05
 -1      1332-1.12319E-03-1.55054E-04 8.21201E-05-5.94483E-05-1.17841E-05-6.42926E-06
 -1      1333-6.91369E-04 1.42328E-04 1.51242E-03-7.24789E-05-1.15563E-04 8.59613E-04
 -1      1334-1.19716E-03 7.86789E-06 1.38535E-03 2.21711E-05-5.70440E-06 7.71041E-04
 -1      1335-3.52082E-05-5.16546E-06-1.45046E-05 7.48308E-06 2.09685E-05-6.61301E-06
 -1      1336-1.24026E-05 4.23785E-05-4.20206E-06-4.57958E-06-1.25276E-05 2.16526E-05
 -1      1337-4.25291E-05 4.96869E-05-2.37107E-06 1.07684E-06-1.03035E-05 2.57779E-05
 -1      1338-7.18914E-05-1.26259E-05-1.51572E-05 2.16344E-05 2.52538E-05-4.79507E-06
 -1      1339-5.60127E-06 1.33507E-05-4.63586E-06 8.84620E-06-4.27097E-06-4.90623E-06
 -1      1340-5.87321E-05-1.32236E-04-1.11303E-05-8.52353E-05-8.90031E-05-8.01624E-06
 -1      1341-3.11033E-05-1.11530E-04-3.12359E-05-3.93930E-05-5.49894E-05-1.61618E-05
 -1      1342-1.40332E-05-2.30747E-04-5.66766E-06-8.04557E-05-9.57651E-05-8.50162E-06
 -1      1343 4.06365E-03 8.99548E-04 1.25019E-03 9.65054E-04 5.05491E-05 3.16049E-03
 -1      1344 4.53860E-03 7.67818E-04-2.94113E-04 6.79747E-04-7.07826E-05 2.35835E-03
 -1      1345-8.06061E-04-4.14928E-04-2.26306E-03 8.29247E-04 6.67163E-05 4.10816E-04
 -1      1346-1.35283E-05-9.76560E-06-2.74795E-06-1.85287E-05-2.37751E-06-8.30650E-06
 -1      1347-1.25675E-05-1.31929E-05-4.02733E-06-2.51285E-05-5.46766E-06-7.99305E-06
 -1      1348-1.09258E-05-2.90257E-06-3.50474E-07 1.51567E-05 2.81432E-06-8.70119E-06
 -1      1349-1.14861E-05-6.37038E-06-2.10800E-06 2.32606E-05 1.47789E-06-7.67175E-06
 -1      1350-7.18986E-03 4.61284E-04-1.82938E-03 9.63375E-04 3.88131E-04-2.73394E-03
 -1      1351-6.37620E-06-1.67792E-05-2.71957E-05 4.05115E-06 5.55924E-05-3.07267E-05
 -1      1352 2.71311E-05-1.88860E-04-3.66368E-03 1.88229E-05-8.20933E-04-1.12891E-03
 -1      1353 2.00052E-06-3.73968E-05-2.09251E-03-5.56617E-05-7.33782E-04-8.47307E-04
 -1      1354-9.81643E-04 3.64182E-04-2.84570E-03-2.09882E-04 3.86033E-04-6.46529E-04
 -1      1355-2.13909E-05 8.03491E-05 9.40879E-07-5.74053E-05-1.49718E-05 4.46399E-05
 -1      1356-5.78339E-04-2.99986E-05 6.28744E-06-3.88004E-04 3.74064E-04-9.48598E-04
 -1      1357-1.59670E-03 1.55370E-04-3.46549E-03-4.14767E-04 6.79643E-04-1.43744E-03
 -1      1358-4.28228E-04 1.03817E-04-4.22041E-04 2.43927E-05 1.80911E-04-1.12767E-03
 -1      1359 4.77745E-03 3.69959E-04-7.23114E-04 4.55343E-04 2.48365E-05-8.93364E-04
 -1      1360 1.91029E-03 1.62708E-04-7.59614E-04 3.27818E-04-1.08783E-04-7.65859E-04
 -1      1361 5.69221E-03 7.68161E-04-1.06985E-03 9.49992E-04-2.50603E-04 9.77411E-04
 -1      1362 1.71756E-03-1.88046E-04-2.11024E-03 7.36330E-04-6.75893E-06-1.36165E-03
 -1      1363-9.07223E-06-2.15481E-05-2.05428E-05 6.24257E-06 5.21887E-05-2.91051E-05
 -1      1364-4.80807E-03-1.43186E-03-6.49672E-03-4.98129E-04-1.10127E-04-3.15234E-03
 -1      1365-2.97552E-03-3.99733E-04-5.92347E-03-1.38960E-04-2.69093E-04-2.27810E-03
 -1      1366-9.42983E-04 4.81245E-04 2.84310E-03-6.14861E-04-6.69981E-04 1.58797E-03
 -1      1367-2.40891E-03-1.18305E-04-2.26069E-03-2.40356E-04-4.37658E-04-4.58945E-04
 -1      1368-1.39693E-04 1.39609E-04 1.09441E-03-5.37382E-04-3.49200E-04 2.01526E-03
 -1      1369-3.59525E-03-7.84635E-04-5.92714E-03 5.67427E-05 5.93633E-04-2.60206E-03
 -1      1370-5.11226E-04 5.63937E-05 1.08134E-03 4.80788E-04 3.95756E-04 1.89645E-03
 -1      1371-1.10303E-03 4.22955E-04 3.04439E-03 5.57409E-04 7.35158E-04 1.80654E-03
 -1      1372-4.87787E-03-1.46988E-03-6.75346E-03 5.39167E-04 7.55103E-05-3.24315E-03
 -1      1373-2.42032E-03 2.34721E-05-1.89418E-03 2.30901E-04 4.49540E-04-1.04305E-04
 -1      1374-3.46282E-03-8.03194E-04-6.09956E-03 5.78203E-06-6.16057E-04-2.61606E-03
 -1      1375-5.31031E-04-3.80944E-04-1.45061E-03 1.54299E-04 2.10398E-04-4.89229E-04
 -1      1376-5.45141E-04-5.84743E-04-1.97550E-03 1.36296E-04 3.76274E-04-4.18427E-04
 -1      1377-3.20037E-04-4.28586E-04-2.52338E-03 1.25404E-04 3.75341E-04-8.46967E-04
 -1      1378-8.26468E-05-3.16324E-04-2.72933E-03-4.05812E-05 2.40735E-04-3.03890E-04
 -1      1379-2.79181E-04-3.27416E-04-2.31055E-03-9.49097E-05 2.74344E-04-4.53474E-04
 -1      1380-7.64561E-05-3.54131E-04-3.75910E-03-1.76010E-05 7.25079E-04-1.08133E-03
 -1      1381-1.12316E-05 3.88099E-06-6.97697E-07-9.51603E-06 1.20438E-06-1.07600E-05
 -1      1382-1.25768E-05 4.93652E-06-2.33870E-06-9.21544E-06 1.34033E-06-5.32447E-06
 -1      1383-3.35236E-06 8.41567E-06-2.15577E-06-8.69801E-06 7.22374E-06-7.46859E-06
 -1      1384-1.45964E-04 1.51298E-04 7.09528E-04 1.09519E-04 1.78359E-04 2.27824E-04
 -1      1385-1.74327E-04 5.50109E-05 1.07625E-03 1.60617E-04 1.56228E-04 4.30413E-04
 -1      1386-2.28972E-04 4.63809E-05 8.19374E-04 7.00472E-05 1.35996E-05 2.66196E-04
 -1      1387-2.68434E-05-2.96904E-04-8.07119E-05 7.39503E-05 1.56525E-04-1.63477E-05
 -1      1388 2.13650E-05-2.20373E-04-1.41449E-06 4.28344E-05 4.88934E-05-1.40182E-05
 -1      1389 3.13819E-03 1.39951E-04-9.31693E-04-6.67483E-04 2.42103E-04-3.45652E-04
 -1      1390-1.29074E-05-1.76164E-05-8.48811E-06 8.43672E-06 3.21518E-05-2.34135E-05
 -1      1391-1.21649E-05-7.14312E-06-6.18686E-06 6.32057E-06 1.88268E-05-2.09274E-05
 -1      1392-2.81812E-05-2.41057E-05-9.63130E-06 2.86264E-05 1.83809E-05-1.12748E-05
 -1      1393-1.31598E-05-6.81721E-06-1.05990E-05-7.02126E-06-3.39526E-05-2.60135E-05
 -1      1394-8.38400E-06-1.16242E-05-5.21443E-06-7.61304E-06-4.45046E-05-2.76897E-05
 -1      1395-2.36810E-05-2.98774E-05-7.90555E-06-3.70834E-05-3.73496E-05-1.67507E-05
 -1      1396 1.11702E-03 3.74550E-04-2.32448E-03 5.21442E-04-1.37887E-06 2.01164E-04
 -1      1397-2.52837E-05-2.74159E-04-6.64000E-05-7.48196E-05-1.33859E-04-1.18897E-05
 -1      1398-3.47263E-04-9.95217E-06 4.70909E-04 1.01934E-04 5.82083E-05 1.16996E-04
 -1      1399-4.62801E-04-4.11141E-04-3.21821E-03 7.94682E-05-4.33992E-04-7.79803E-04
 -1      1400 2.17644E-04 1.19996E-04 1.23065E-03-1.43053E-04 2.93632E-06 6.64031E-04
 -1      1401 9.00325E-05 1.22121E-04 8.14671E-04-2.21498E-04-2.92383E-04 5.10939E-04
 -1      1402 2.61094E-04 2.53999E-04 1.54052E-03-1.40767E-04-1.20297E-04 6.09246E-04
 -1      1403-6.38884E-04-4.54633E-04-1.59395E-03-6.75130E-05 6.96082E-05-3.60588E-04
 -1      1404 2.02708E-05-2.27295E-04-2.14559E-07-5.25507E-05-4.64087E-05-1.30503E-05
 -1      1405-4.81495E-05-1.49622E-04-4.80085E-05 5.31486E-05 6.99884E-05-2.11465E-05
 -1      1406-2.83235E-06 5.78540E-06-2.76238E-07 9.97515E-06-6.61599E-06-9.89362E-06
 -1      1407-2.86541E-03-5.20494E-04-6.26067E-03 9.36759E-05 1.45181E-04-2.43135E-03
 -1      1408-2.24530E-03 4.76631E-05 1.02496E-03-6.67440E-06-1.14316E-04 2.79568E-04
 -1      1409-1.03627E-03 4.08176E-04-2.95642E-03 1.91709E-04-1.92315E-04-8.29214E-04
 -1      1410-1.94021E-03 2.10399E-04-3.47538E-03-5.86639E-05-7.95681E-05-1.68520E-03
 -1      1411-1.38981E-03-2.84801E-04-2.56460E-03 3.24900E-05-5.28126E-04-1.87265E-03
 -1      1412-7.04937E-04 2.49604E-04-2.32670E-03 3.47521E-04-7.24990E-04-7.05004E-04
 -1      1413-3.46827E-03-8.21723E-04-1.82190E-03 1.05393E-04 5.68481E-05-2.75261E-03
 -1      1414-3.45100E-05-1.14846E-04-2.93388E-05 4.59598E-05 7.42589E-05-1.51365E-05
 -1      1415-3.43535E-05 1.33155E-05-1.11355E-05-1.02559E-05-1.26998E-05 7.68074E-07
 -1      1416-1.74277E-05 1.37702E-05-4.60489E-06-2.98188E-06-3.17467E-06-1.91180E-06
 -1      1417-9.26960E-06 4.07630E-05 3.07853E-06 7.43258E-06 1.34939E-05 2.20016E-05
 -1      1418-1.29704E-05-2.77540E-06-2.21909E-06 1.17306E-05 6.01548E-06-1.03452E-05
 -1      1419-1.52262E-05-4.04069E-06-3.48467E-06-1.26257E-05-3.90772E-06-9.99645E-06
 -1      1420-9.81142E-06 3.11030E-06 1.47560E-06-1.08090E-05-1.08357E-06-9.68954E-06
 -1      1421-1.96200E-03-2.43697E-04 8.50760E-04-1.73692E-04-7.43314E-05 1.61941E-03
 -1      1422-1.31419E-03 2.93346E-04-2.71530E-03-1.81501E-04-5.79582E-04-1.42838E-04
 -1      1423-2.31476E-05-2.87670E-04-3.33968E-05 9.70125E-05 1.37453E-04-2.69701E-05
 -1      1424-8.16247E-05-1.58581E-04-3.06052E-05 9.98685E-05 9.70171E-05-2.07662E-05
 -1      1425-1.63432E-05-2.11985E-07-4.78209E-06-1.21884E-05-1.02795E-05-1.09500E-05
 -1      1426-9.73799E-06-2.87644E-06-1.01308E-05-1.03055E-06-1.01889E-05-2.31642E-05
 -1      1427-2.20644E-05-1.84355E-05-9.29008E-06-2.45310E-05-3.29274E-05-1.59978E-05
 -1      1428-2.27198E-05 7.15439E-06-7.88567E-06 1.54835E-06 2.56881E-06-1.72515E-06
 -1      1429 1.17539E-06 4.80891E-05-2.57104E-06 4.12449E-06-1.96203E-05 1.53630E-05
 -1      1430-1.61229E-03-5.63437E-06 1.00025E-03-1.48463E-04 7.96484E-05 6.49914E-04
 -1      1431-8.74717E-04 2.88639E-05 1.82155E-03-1.36614E-04 4.37197E-05 1.45899E-03
 -1      1432-6.36531E-04-1.86344E-05 1.97753E-03-1.21891E-05-2.15162E-05 1.47866E-03
 -1      1433-1.67085E-03-3.39337E-04-5.47979E-04 8.41889E-05-1.86807E-04-2.69066E-04
 -1      1434 4.76215E-06 2.39228E-05-6.12512E-07-8.35356E-06 1.93651E-05-2.22734E-06
 -1      1435-5.44609E-06 2.01813E-05-4.94737E-06-6.77735E-06 6.87056E-06-3.46605E-06
 -1      1436 2.23191E-06 4.52839E-05-9.31301E-08-1.86514E-06 2.55596E-05 1.49575E-05
 -1      1437 3.81377E-05 1.31165E-04 1.16109E-03 2.32040E-04 2.03566E-04 4.91176E-04
 -1      1438 3.04049E-04 5.30441E-04 1.76142E-03-1.82060E-05-1.11440E-05 1.14750E-03
 -1      1439 2.05193E-04 2.02791E-04 1.25832E-03-2.23553E-04-1.88341E-04 5.94749E-04
 -1      1440 5.95136E-05 4.90959E-04 1.58810E-03-3.15236E-05 1.27918E-05 9.54164E-04
 -1      1441-3.91904E-04 3.64733E-04 1.43908E-03-2.88135E-05 2.93945E-06 7.16215E-04
 -1      1442-1.51005E-05 1.50690E-04 1.06535E-03-1.57839E-04-1.77615E-04 3.98121E-04
 -1      1443 1.25779E-06 4.67458E-05 7.03267E-06-7.68920E-06 4.99817E-05-6.29193E-06
 -1      1444-6.39514E-04 3.50632E-05 3.42767E-04 2.16942E-05 7.07297E-05 1.12464E-04
 -1      1445-5.08535E-04-2.00853E-04-6.24118E-04-5.87719E-05-1.30200E-05-3.73370E-04
 -1      1446-3.86630E-04 3.67810E-05 4.29417E-04-8.25080E-05-7.41351E-05 9.00892E-05
 -1      1447-4.92716E-04-1.89665E-04-7.22203E-04 7.59880E-05-3.19426E-06-3.15595E-04
 -1      1448-9.20391E-04-3.02542E-04-1.02577E-03 5.26686E-05-3.87895E-05-5.34560E-04
 -1      1449-1.59470E-05-2.04392E-05-1.29900E-05 8.46966E-06 4.74720E-05-3.23737E-05
 -1      1450-2.60551E-05-3.80633E-05-9.75989E-06 3.25894E-05 3.63995E-05-1.75979E-05
 -1      1451-1.22505E-04 1.77488E-04 7.00562E-04-1.49631E-04-1.92798E-04 2.34184E-04
 -1      1452-3.70590E-04 5.21538E-05 2.38810E-04-6.46079E-05-1.03101E-04 6.64532E-05
 -1      1453-3.98268E-04-3.09698E-04-8.71630E-04 2.40422E-04 4.00131E-04-3.94375E-04
 -1      1454-2.63492E-05 3.00744E-06-9.26106E-06-9.79245E-06-7.70523E-06-1.24611E-06
 -1      1455-5.59731E-05-3.33928E-06-8.74105E-06-2.58360E-05-1.59866E-05 3.71725E-06
 -1      1456 2.33772E-05 3.49924E-05 9.29086E-04-2.03965E-04-3.96000E-04 3.45898E-04
 -1      1457 1.89262E-04 3.64116E-05 1.36356E-03-6.10012E-05 3.80714E-06 5.13289E-04
 -1      1458 1.19161E-03 3.53466E-04-2.43188E-03-3.76882E-04 3.54486E-06 1.27659E-04
 -1      1459 4.25005E-03 8.63772E-04 1.25877E-03-9.59551E-04-1.27368E-04 3.20346E-03
 -1      1460 6.39767E-05 1.21424E-04 9.52949E-04 3.20470E-04 3.56139E-04 5.86841E-04
 -1      1461 1.90660E-04 3.71262E-04 1.72605E-03 4.83727E-05-1.44501E-05 9.01966E-04
 -1      1462 4.77707E-03 7.70437E-04-3.17017E-04-6.97021E-04-2.08059E-05 2.42234E-03
 -1      1463-3.92101E-04-2.36149E-04-1.85092E-03-7.20568E-04 5.69860E-05 7.74308E-04
 -1      1464 2.13785E-05-2.75143E-04-2.69459E-03 3.13777E-06-3.08286E-04-3.76223E-04
 -1      1465-5.47562E-04-3.69824E-04-1.48509E-03 4.12068E-05-9.14320E-05-3.69124E-04
 -1      1466-5.85792E-04-3.62595E-04-1.31163E-03-1.67038E-04-2.07181E-04-5.31989E-04
 -1      1467-3.46196E-04-5.38894E-04-2.73779E-03-9.31603E-05-5.52577E-04-9.59098E-04
 -1      1468-5.58525E-04-2.40743E-04-6.35439E-04 9.38962E-06 6.93996E-05-3.99778E-04
 -1      1469-2.13646E-05-8.81665E-06-7.78180E-06 1.84588E-05 1.64319E-05-1.02953E-05
 -1      1470-1.98380E-03 2.48016E-05 1.43775E-03 1.39660E-04-6.12998E-04-4.64296E-05
 -1      1471 1.25908E-05 9.23131E-05 1.09672E-05-1.83362E-05 3.05276E-05-5.15907E-06
 -1      1472 1.40142E-05 9.85680E-05 1.44937E-05-1.28637E-05 3.62844E-05 1.88537E-05
 -1      1473-5.90779E-04-4.15257E-05-3.64546E-03 1.43967E-04-1.10713E-04-9.06985E-04
 -1      1474 9.42242E-05-2.97726E-05 1.01309E-03 2.33405E-04 4.25759E-04 3.60140E-04
 -1      1475 9.75251E-06-3.20302E-06-2.69492E-06-1.17859E-05 6.83997E-06-1.05146E-05
 -1      1476-9.60656E-07-9.63293E-06-4.00228E-06-1.51292E-05 5.35592E-06-1.14225E-05
 -1      1477 2.83913E-06-3.50241E-06 6.59609E-06 1.41393E-05-3.42721E-06-1.30039E-05
 -1      1478-2.47519E-04 4.22472E-05 2.02339E-03-6.23212E-05-1.32949E-04 1.52238E-03
 -1      1479-1.46396E-04-2.02693E-04-1.88686E-04-1.60461E-04-1.58086E-04-1.03311E-04
 -1      1480-1.02145E-04-2.53858E-04-2.39296E-04-1.23605E-04-1.30771E-04-7.46317E-05
 -1      1481-3.55623E-04-7.74868E-04-3.08651E-03-4.85361E-04-3.67131E-04 4.00969E-04
 -1      1482-5.16387E-03-8.49440E-04-2.02236E-03 8.61387E-04 3.16402E-05-7.45241E-04
 -1      1483 4.45973E-03 8.51836E-04 7.82282E-04-5.89025E-05 2.78211E-04 4.00236E-03
 -1      1484 9.28666E-03 1.12414E-03-2.27448E-04 9.77955E-05 9.09245E-05 3.49054E-03
 -1      1485-3.11605E-05-8.04102E-05-1.77808E-05-4.28266E-05-6.51852E-05-1.53943E-05
 -1      1486-5.35751E-04-4.05739E-04-1.62950E-03 1.09948E-05-9.71337E-06-3.36600E-04
 -1      1487-2.76663E-04-1.30383E-04-2.71386E-03-1.85324E-05 8.51559E-05-5.91346E-04
 -1      1488 5.71756E-03 7.38863E-04-1.46183E-03-8.74700E-04 3.02689E-04 8.66524E-04
 -1      1489-5.34886E-04-6.25289E-04-2.40726E-03 3.84817E-05-8.87778E-05-2.05830E-04
 -1      1490-1.70991E-03 4.54822E-04-2.76177E-03-5.12905E-05-1.15776E-04 4.65406E-05
 -1      1491-6.10874E-03-1.03900E-03-2.20725E-03-3.84743E-05 4.54757E-04-1.35590E-03
 -1      1492-6.56390E-05 9.53803E-04-2.35295E-03 1.28779E-04 4.61979E-04 5.51787E-04
 -1      1493-1.06008E-04-2.98502E-04-3.07681E-04 1.14925E-04 1.77442E-04-7.31489E-05
 -1      1494-2.15827E-04-2.69307E-04-3.23041E-04 1.39390E-04 1.90646E-04-1.34282E-04
 -1      1495 7.86063E-03 7.80393E-07 5.95764E-04 5.65042E-05 2.06252E-06 4.62225E-03
 -1      1496 8.97801E-03 1.35486E-04 1.67492E-03 4.81630E-05 6.00946E-05 4.24491E-03
 -1      1497 1.15742E-02-1.20568E-05 5.30133E-04-3.52199E-05-1.93081E-05 4.35542E-03
 -1      1498 1.08195E-03 4.75201E-04 2.89845E-03-7.17901E-06-6.41334E-05 3.98383E-03
 -1      1499-4.83554E-03-6.01838E-04-1.81502E-03-8.69584E-04-3.70531E-04-9.81579E-04
 -1      1500-8.14269E-05 4.92907E-05 9.89409E-06 2.89806E-05-1.19680E-06-4.92052E-06
 -1      1501 4.49390E-06 2.52751E-05-7.74063E-07 1.02041E-05-1.86488E-05-1.63989E-06
 -1      1502 8.87118E-06 9.54067E-05 1.07007E-05 1.58438E-05-3.15126E-05-6.76782E-06
 -1      1503 1.13826E-05 9.87765E-05 9.27050E-06 7.84950E-06-2.81760E-05 1.86935E-05
 -1      1504-3.48372E-04-7.67389E-05-1.67698E-04 4.53481E-05 5.04247E-05-7.26959E-05
 -1      1505-2.71905E-04 9.65442E-07 1.24160E-04-3.11972E-05-3.94625E-05 2.76876E-05
 -1      1506-3.44153E-04 5.46291E-05 2.85520E-04 6.40843E-05 1.12578E-04 6.42577E-05
 -1      1507-8.24464E-05-7.63768E-05-8.08287E-06-9.13055E-05-6.16030E-05-2.90319E-05
 -1      1508-5.84400E-05-1.86735E-05-8.48002E-06-2.64724E-05-4.01067E-05-1.17792E-05
 -1      1509-1.18990E-04-1.03473E-05-2.49305E-05-3.36185E-05-2.44717E-05-2.12813E-05
 -1      1510-1.57677E-04-8.28297E-05-5.04304E-05-9.58782E-05-4.55077E-05-5.80680E-05
 -1      1511 2.30136E-06-5.83361E-06-1.10257E-05-9.70635E-06 2.40945E-06-1.44779E-05
 -1      1512-5.57762E-06-3.03329E-05-3.37774E-05-7.20833E-06-6.49250E-05-2.80015E-05
 -1      1513 7.21310E-06-2.21065E-05-3.63987E-06 1.55581E-06-3.39930E-05-2.09945E-05
 -1      1514-2.38438E-04 1.40441E-05-3.70531E-05-2.76947E-05-1.65181E-05-5.09510E-05
 -1      1515-7.74886E-04-1.16138E-04 1.78990E-03-9.72488E-05 5.30504E-05 2.10684E-03
 -1      1516 7.35542E-04-9.91478E-05 2.30845E-03-4.27096E-05-5.36644E-05 2.78859E-03
 -1      1517 1.88825E-03-6.72011E-06 2.29704E-03-6.72968E-06-3.49537E-05 3.53688E-03
 -1      1518-8.09710E-05-8.80239E-05-4.15298E-05 9.78234E-05 5.16694E-05-4.84626E-05
 -1      1519-6.24475E-05-6.59839E-05-4.88069E-06 8.21943E-05 4.76253E-05-1.50214E-05
 -1      1520-5.35124E-04-2.41191E-04-7.12758E-04-1.92954E-05-8.19471E-05-3.82983E-04
 -1      1521-1.43341E-04 5.09198E-05 1.23597E-05 4.00555E-05 6.28846E-06 2.77053E-05
 -1      1522-4.97383E-05 1.43144E-04 1.34846E-04 6.15335E-05 8.38230E-05 1.23848E-04
 -1      1523-1.74701E-04 9.65997E-05 1.77116E-04 6.78556E-05 9.31997E-05 6.35034E-05
 -1      1524-4.74734E-04-2.85033E-04-7.36814E-04-2.39144E-04-3.54361E-04-4.77553E-04
 -1      1525-2.87687E-04-1.00039E-04-2.00003E-04-1.13140E-04-1.49784E-04-1.07057E-04
 -1      1526-5.47527E-05-7.98136E-06-7.63483E-06-1.78608E-05-1.80865E-05-5.34172E-06
 -1      1527-1.67180E-05-7.03747E-05-1.61053E-05-2.39466E-05-5.53762E-05-1.56211E-05
 -1      1528-2.10566E-05-6.95610E-04-1.57918E-03 1.58364E-04 8.36171E-04-2.49086E-04
 -1      1529-1.77293E-04 2.96260E-05-2.97992E-05 2.98230E-05 1.25611E-05 8.07505E-06
 -1      1530-5.52378E-04-5.66835E-04-1.91077E-03-1.69166E-04-3.53109E-04-4.48793E-04
 -1      1531-7.62283E-06-4.31794E-06-6.70422E-06-9.16252E-07-3.77086E-06-2.00521E-05
 -1      1532 2.25562E-04 8.51796E-05 2.02675E-03-1.23101E-04-1.93924E-04 1.54611E-03
 -1      1533-3.88711E-05 1.60647E-04 2.08623E-03-7.42044E-05-1.20370E-04 1.40404E-03
 -1      1534 4.29442E-04 7.39998E-06 2.13352E-03 1.02111E-05 3.73422E-05 1.80534E-03
 -1      1535-4.89016E-04-1.82932E-04-6.37698E-04-1.34674E-04-1.68864E-04-4.72403E-04
 -1      1536-3.39008E-04-5.15346E-05-1.66614E-04-6.96723E-05-4.02172E-05-1.00063E-04
 -1      1537-4.66847E-04-1.75629E-04-5.75688E-04 1.43745E-04 1.13785E-04-4.24330E-04
 -1      1538 1.19940E-02 1.46001E-03 2.06843E-04-7.81118E-04-1.15295E-04 2.39715E-03
 -1      1539 1.18578E-02 1.27006E-03 1.00136E-04 1.10148E-03 2.34132E-04 2.44107E-03
 -1      1540-4.14676E-05-6.79151E-04-1.45233E-03-1.73736E-04-8.09895E-04-2.54660E-04
 -1      1541-1.23325E-03-2.95475E-04-2.57378E-03-1.07965E-04 4.89306E-04-1.85602E-03
 -1      1542 2.24767E-03 9.59875E-05-4.58211E-04-5.79098E-04 7.32909E-05-2.21536E-04
 -1      1543-2.23368E-03-1.45133E-04-1.44581E-04 6.60941E-04 1.34055E-04-3.39292E-04
 -1      1544-1.57906E-04-6.76175E-06-6.64943E-05 5.64274E-05 8.14609E-05 3.18003E-06
 -1      1545-3.85683E-04-1.58088E-04-3.39832E-04 2.45278E-04 1.66211E-04-2.69600E-04
 -1      1546-4.48407E-05 1.40387E-04 1.89590E-04-7.39890E-05-1.05931E-04 1.58348E-04
 -1      1547-2.20988E-04 1.77431E-05-3.69157E-05-6.17042E-05-2.52072E-05 2.38141E-05
 -1      1548-1.37461E-04 1.03560E-04 2.44903E-04-8.10536E-05-9.98606E-05 9.86661E-05
 -1      1549-3.28966E-04-1.23567E-05 2.83558E-05-2.79558E-05 2.01223E-05-3.78018E-05
 -1      1550-1.66496E-04 1.13171E-04 6.44015E-05 1.46007E-04 5.98088E-05 1.14286E-04
 -1      1551-4.97151E-05 1.26771E-04 1.27675E-05 1.23468E-04 6.15274E-05 8.19177E-05
 -1      1552 1.20981E-05 1.14179E-04 3.34436E-04 1.30599E-04 8.18871E-05 2.97114E-04
 -1      1553-1.06134E-05-1.69630E-07-3.11131E-06 1.17476E-05-1.27429E-06-7.44223E-06
 -1      1554 5.78334E-03 1.17052E-04-5.89764E-04 7.06403E-04 2.17853E-04-1.63194E-05
 -1      1555-1.85845E-05 1.76500E-04 2.27637E-04-9.75639E-05-1.07186E-04 1.39104E-04
 -1      1556-3.41846E-05 1.01654E-04 2.51931E-04-1.21095E-04-5.47606E-05 2.43642E-04
 -1      1557-1.34297E-04 6.71147E-05 1.33026E-04-1.03571E-04-4.71358E-05 1.59665E-04
 -1      1558-5.35250E-05 1.32502E-04 1.34539E-04-8.18731E-05-7.29269E-05 9.95648E-05
 -1      1559 3.38998E-04-2.94901E-05 2.28882E-03-8.84755E-06-1.02910E-05 1.99880E-03
 -1      1560 1.47757E-03 5.71180E-05 1.79430E-03-3.06313E-06-1.02397E-05 1.90342E-03
 -1      1561 1.50576E-03 9.59507E-06 2.00001E-03 1.61793E-05-1.01220E-05 2.13834E-03
 -1      1562-1.59071E-04 9.95775E-05 2.79334E-04-9.82254E-05-1.62673E-04 1.72131E-04
 -1      1563-5.79410E-05 1.47414E-04 5.46734E-04 2.15546E-04 3.01152E-04 3.20495E-04
 -1      1564 4.50102E-03 2.34908E-04 1.31385E-03-3.13238E-05-1.76422E-04 4.35922E-03
 -1      1565 8.90720E-03 5.32994E-04-2.96139E-05-3.89750E-04 2.32258E-05 3.91908E-03
 -1      1566-6.58062E-05 2.30117E-05-1.41769E-05 3.01532E-05-1.00014E-05 2.02226E-05
 -1      1567-3.90122E-07 6.69967E-05 2.39770E-05 4.31209E-05 1.03266E-05 5.69099E-05
 -1      1568 8.33953E-06-1.73203E-05-8.56022E-08 2.17849E-06-3.83171E-05-1.67664E-05
 -1      1569-7.45253E-05 1.28373E-04 6.03241E-04-2.09938E-04-3.01421E-04 3.67700E-04
 -1      1570-5.98559E-06-2.63389E-05-5.81219E-05 2.77754E-06 3.07152E-05-1.65995E-05
 -1      1571 6.91037E-07 8.15033E-06 1.36868E-05-3.44714E-06 1.19461E-05-1.23090E-05
 -1      1572 1.84871E-05-3.31792E-04-1.63225E-04 6.97657E-05 1.82128E-04 3.93103E-05
 -1      1573-3.45604E-06-2.29054E-05-9.89357E-06-8.33651E-06-7.39160E-05-2.66589E-05
 -1      1574-1.21821E-05-2.19869E-05-1.31531E-05-1.11387E-05-7.02013E-05-3.03833E-05
 -1      1575-2.91053E-05 9.13864E-05 9.60642E-05 6.96593E-05 4.95715E-05 9.46004E-05
 -1      1576 4.92934E-03 6.28312E-06-2.61717E-04 1.10569E-03 4.51821E-04 9.07261E-04
 -1      1577-3.72461E-07 8.83920E-06 1.23157E-05 4.03498E-06-1.16010E-05-1.32358E-05
 -1      1578 8.31472E-07 8.81822E-06 8.03831E-06 4.15932E-06-1.69737E-05-1.32067E-05
 -1      1579 1.92831E-05-3.35579E-04-1.79743E-04-6.42345E-05-1.73275E-04 2.45856E-05
 -1      1580-1.22759E-04-5.58889E-06-5.10392E-05 4.22662E-05 6.13854E-05-4.66597E-05
 -1      1581-1.24440E-04 4.30903E-05-1.47535E-05 3.50948E-05-8.17027E-06 2.91741E-05
 -1      1582-1.83965E-03 6.38107E-05 1.58133E-03-1.25480E-04 6.08973E-04-1.48410E-04
 -1      1583 4.48539E-03 5.82082E-05-2.92807E-04-9.04501E-04-1.16157E-04 1.02328E-03
 -1      1584 3.84821E-03 2.77598E-05 1.97949E-03-1.47324E-05-4.13170E-05 3.13978E-03
 -1      1585 1.81465E-03 1.11510E-04 2.17029E-03 1.75578E-06-1.82070E-04 3.67254E-03
 -1      1586-8.45058E-06-2.91606E-06-5.76760E-06 2.11861E-06 1.88255E-06-1.93313E-05
 -1      1587 2.08839E-05 1.57319E-04 5.22779E-05-1.14175E-04-5.73269E-05 1.04026E-04
 -1      1588 8.11070E-04 4.51843E-05 1.72621E-03 7.16584E-06 1.77651E-05 1.49036E-03
 -1      1589-8.99827E-06 1.29873E-06 9.33111E-07 1.03387E-05 1.25612E-06-1.01285E-05
 -1      1590 1.47145E-04-6.99847E-06 2.38565E-03-1.31013E-05-1.63112E-05 2.22695E-03
 -1      1591 3.60298E-03 2.99300E-04-8.43681E-04-6.86766E-04 1.70393E-04-3.34553E-04
 -1      1592 3.90220E-03 3.23114E-04-8.02397E-04-7.29445E-04 1.26594E-04-2.32768E-04
 -1      1593-2.08041E-05 1.57524E-04 1.34405E-05-3.64957E-05-6.74968E-05 1.35510E-05
 -1      1594-3.67817E-06-3.07136E-05-4.20017E-05 6.56108E-06 4.29850E-05-1.92598E-05
 -1      1595 8.12879E-05 2.50826E-04 3.83331E-04-1.02155E-04-1.75204E-04 1.86280E-04
 -1      1596 1.23356E-06 8.83447E-06 9.49337E-06-4.10533E-06 1.68106E-05-1.21265E-05
 -1      1597 5.30779E-04 1.48817E-04 1.77140E-03-1.14709E-04-1.56400E-04 1.26998E-03
 -1      1598-2.13492E-06 4.99150E-05 2.36478E-06 8.16397E-06-4.81674E-05-8.62973E-06
 -1      1599 5.61898E-03-9.32295E-06 1.77621E-03 5.49954E-05-4.66959E-05 3.74442E-03
 -1      1600 5.95432E-03-2.49858E-04-5.72866E-04 3.96004E-04 1.33300E-04-5.46506E-04
 -1      1601 5.85561E-03-8.59609E-05-5.56141E-04 3.34769E-04 1.76834E-04-6.55322E-04
 -1      1602 5.90709E-03-4.47552E-05-6.25743E-04-3.10488E-04-1.60788E-04-9.14322E-04
 -1      1603 5.79487E-03-2.65570E-04-7.71051E-04-3.65179E-04-1.77087E-04-8.86160E-04
 -1      1604 5.69920E-03-7.24732E-05-8.12096E-04-1.69002E-04-3.87589E-05-1.07837E-03
 -1      1605-5.20169E-03-4.52871E-04-5.45819E-05-1.01981E-03-7.03338E-05-5.80203E-04
 -1      1606-5.73587E-03-3.58208E-04-2.46738E-04-1.35578E-03-1.22783E-04 3.62497E-05
 -1      1607 7.91779E-05 2.79607E-04 3.70897E-04 1.08898E-04 1.90770E-04 1.83758E-04
 -1      1608 2.39449E-03 4.18192E-05 2.12486E-03 2.14653E-05 6.86973E-06 2.71504E-03
 -1      1609-3.49929E-05 1.77986E-04 2.13585E-05 2.11119E-05 7.22331E-05 3.14562E-06
 -1      1610 5.54627E-03-2.36005E-04-4.90991E-04 2.03668E-04 7.38411E-05-7.42358E-04
 -1      1611 5.32388E-03-2.26971E-04-7.26037E-04-2.15415E-04-1.57229E-04-1.06126E-03
 -1      1612 5.35746E-03-6.43568E-05-8.01666E-04-7.91274E-06-1.03504E-06-1.24327E-03
 -1      1613 5.14693E-03-2.99256E-04-4.71741E-04-7.14908E-05-4.64436E-04 9.14953E-04
 -1      1614 5.83705E-03-1.23856E-04-7.40291E-04-4.81334E-05-8.46294E-05 4.19458E-04
 -1      1615 4.16936E-03 1.86653E-04-2.56460E-04 7.85668E-04 2.79092E-04 7.52316E-04
 -1      1616-1.38620E-05-2.07071E-05-4.88083E-05-5.28500E-06-5.56693E-05-3.15889E-05
 -1      1617 5.36286E-03-3.15360E-05 1.84773E-03-4.86697E-05-2.00911E-04 3.94691E-03
 -1      1618 2.56085E-06 4.55174E-05-5.29603E-07 8.59069E-06-1.50013E-05 3.28033E-07
 -1      1619-5.03351E-03-2.94646E-04 3.67334E-05 1.49431E-03 3.56635E-04-2.23695E-04
 -1      1620 3.12140E-06 4.26928E-05 2.17552E-06 6.82072E-06-1.63809E-05 2.26208E-07
 -1      1621 1.33556E-02 8.56512E-04 5.92807E-04 3.94869E-04 6.01156E-05 3.54451E-03
 -1      1622 6.17606E-06 3.79187E-05 7.09071E-06 1.67860E-06-3.80320E-05-7.39951E-06
 -1      1623-5.86626E-03 1.19659E-05-1.23379E-04-1.43398E-04 4.92009E-05-2.33056E-03
 -1      1624-5.61763E-03-1.52149E-04-5.28623E-04-6.30445E-05 1.79054E-04-2.23750E-03
 -1      1625 5.13458E-03-7.50079E-05-9.48319E-04-1.65168E-04-8.89812E-05-1.09813E-03
 -1      1626 3.47268E-03 1.21760E-04-9.63100E-04-2.72816E-04-6.82824E-05-1.31754E-03
 -1      1627 3.48123E-03 2.84856E-04-7.79540E-04-3.38876E-04-2.25293E-05-1.39877E-03
 -1      1628 3.39457E-03 1.42812E-05-1.34435E-03-2.44098E-04-3.17620E-05-1.10014E-03
 -1      1629 1.60183E-06 2.51924E-05 4.47096E-07 1.10878E-05-2.34792E-05-5.59303E-06
 -1      1630 8.78733E-06 4.22015E-05 5.86047E-06 1.63461E-05-2.57923E-05-5.14261E-06
 -1      1631-2.80076E-06-5.66357E-05-1.94408E-05-1.41405E-05-4.99082E-05-1.10337E-05
 -1      1632-2.04598E-03-5.07568E-05 1.18111E-04-2.22182E-04-2.11554E-04-1.37614E-03
 -1      1633-3.83009E-03-6.93308E-04-5.86301E-04-7.31266E-04-7.38055E-05-2.12506E-03
 -1      1634-3.83503E-03-5.65489E-04-7.83748E-04-7.09118E-04-1.01279E-04-2.05109E-03
 -1      1635-1.98627E-03-3.83262E-04-5.60061E-04-2.78214E-04-2.32618E-04-1.30133E-03
 -1      1636-1.73486E-03-1.19730E-04-2.23334E-04-1.64282E-04-2.55266E-04-1.31176E-03
 -1      1637 3.08966E-03-4.08880E-05-8.92661E-04 6.70570E-04-1.83001E-04-1.59711E-04
 -1      1638 3.38491E-03 5.23518E-05-6.83177E-04 7.05727E-04-1.18295E-04 1.59527E-05
 -1      1639 5.95786E-03 1.19067E-05-7.58346E-04-2.65627E-04-1.83849E-04-4.20054E-04
 -1      1640-7.11207E-06 1.51802E-06-7.57360E-07 9.82053E-06-3.16924E-06-1.12260E-05
 -1      1641-7.14364E-06-3.36242E-06-3.21002E-06 8.88394E-07-1.18264E-06-2.52570E-05
 -1      1642-4.06615E-03-2.23718E-04 1.19137E-04-8.87245E-04-5.58798E-05-7.94333E-04
 -1      1643-3.78055E-03-1.32342E-04 8.77556E-05-7.93861E-04-1.53918E-04-7.78785E-04
 -1      1644-6.34260E-05 1.52178E-04 4.80563E-04 1.16544E-04 1.20834E-04 2.33072E-04
 -1      1645 5.84750E-05 1.79940E-04 5.49813E-04-1.09665E-04-1.13032E-04 2.71507E-04
 -1      1646 2.93493E-03-8.29971E-05-9.77566E-04 6.45317E-04-2.12342E-04-2.35972E-04
 -1      1647-7.09137E-05-7.71159E-05-1.04454E-05 6.49128E-05 2.83873E-05-5.14239E-06
 -1      1648-1.01054E-04 8.90553E-05 1.24436E-05-4.88169E-05-1.72680E-05 1.40923E-05
 -1      1649-1.20382E-06 1.26653E-05-6.55546E-07 5.23096E-06-2.11838E-05-7.27855E-06
 -1      1650-7.91580E-07 1.09333E-05 3.50393E-07-5.43235E-06 2.08402E-05-7.03540E-06
 -1      1651 2.35988E-06-3.01838E-05-5.42854E-06-1.31395E-06-4.79954E-05-1.50020E-05
 -1      1652-6.07089E-04-2.49293E-05-5.62012E-04 1.11577E-04 2.51710E-04-1.28611E-03
 -1      1653-8.06186E-04-8.19031E-05-7.91722E-04 4.38795E-05 1.91294E-04-1.31183E-03
 -1      1654 5.42696E-06-2.88953E-05-1.11222E-05 4.77032E-06 4.91390E-05-1.14506E-05
 -3
    1PSTEP                         3           1           1          
  100CL  101 1.000000000        1654                     0    1           1
 -4  TOSTRAIN    6    1
 -5  EXX         1    4    1    1
 -5  EYY         1    4    2    2
 -5  EZZ         1    4    3    3
 -5  EXY         1    4    1    2
 -5  EYZ         1    4    2    3
 -5  EZX         1    4    3    1
 -1         1 3.04558E-12 1.75499E-11-5.26589E-11 5.71005E-12 3.06524E-11-3.42760E-11
 -1         2-5.91672E-12 4.31201E-11-2.05539E-11 1.10817E-11-8.86547E-12-7.85113E-12
 -1         3-2.23369E-11-9.45869E-12 1.52676E-10-1.52044E-11-1.72315E-10-1.64125E-10
 -1         4 1.31899E-12 1.82318E-11-1.72706E-11-2.05021E-12-2.97773E-10-8.00781E-11
 -1         5-8.38055E-12 3.72226E-11-9.50319E-12-6.20088E-12-1.44345E-12 1.30688E-12
 -1         6-6.78746E-12 2.05609E-11-4.88308E-11-1.88566E-12-2.98039E-11-3.52115E-11
 -1         7-1.28757E-12 2.48522E-11-1.70315E-11 1.63059E-12 2.93432E-10-7.82658E-11
 -1         8-1.81401E-11-1.29086E-11 1.57917E-10 2.81348E-12 1.75470E-10-1.61884E-10
 -1         9-5.13309E-11-6.89961E-12 1.17178E-10-6.86241E-13-1.52912E-10 1.30628E-11
 -1        10-7.46566E-12-6.43094E-11 1.74684E-10-9.62545E-12-9.18900E-11-5.93864E-11
 -1        11 5.03889E-11-5.65246E-11-4.26403E-11-3.84103E-11 8.73704E-10-6.94672E-11
 -1        12 7.06431E-11 6.42900E-11-6.54929E-10-9.09782E-12 6.12030E-10-1.62389E-10
 -1        13 2.18931E-11-2.70388E-11 1.20510E-10 2.68224E-12 2.07212E-10-7.39034E-11
 -1        14 1.44854E-12-4.40271E-11 1.17439E-10-1.70440E-11 1.70576E-10-1.87116E-12
 -1        15 4.79794E-11-2.05500E-12-8.04674E-10-6.74207E-12-7.63957E-10-1.70105E-10
 -1        16 3.62900E-12-1.36238E-11 4.61471E-12 1.44543E-11-8.73268E-10-5.60793E-11
 -1        17-2.49457E-09-2.18209E-09 7.06736E-09-2.28828E-09-3.16056E-09 2.49182E-09
 -1        18-2.12710E-09-2.25131E-09 6.37763E-09 2.86217E-09 3.77907E-09 1.72437E-09
 -1        19 6.71344E-09-2.44514E-09-1.47513E-08 1.31842E-09 9.82748E-09-3.13918E-09
 -1        20 1.53875E-08 1.52838E-08-4.94223E-08 2.86873E-10 5.98997E-09-1.41954E-08
 -1        21 1.51882E-08 1.49418E-08-4.79531E-08-4.62182E-10-6.10798E-09-1.34212E-08
 -1        22 6.49788E-09-2.70772E-09-1.43645E-08-1.36082E-09-9.94906E-09-3.33294E-09
 -1        23-2.08497E-09 7.33158E-10-3.15674E-09-1.20218E-09 1.78312E-10-3.83462E-09
 -1        24-1.15476E-09 9.05314E-10-4.28767E-09 2.04567E-09 1.45504E-09-5.95220E-09
 -1        25-1.17867E-09 8.61949E-10-4.31644E-09-1.96782E-09-1.41613E-09-6.84206E-09
 -1        26-1.65146E-09 1.11029E-09-3.83159E-09 8.65073E-10-5.58032E-10-3.74744E-09
 -1        27 2.28920E-08-5.52661E-09-1.05544E-08 4.36157E-09 1.99746E-09 2.07695E-09
 -1        28 4.37061E-08-8.24986E-09-1.09153E-08 1.16509E-08 1.96025E-09 1.09932E-08
 -1        29 2.95363E-08-9.26912E-09-8.26491E-09 2.47331E-09 1.02616E-10 2.05180E-10
 -1        30-1.07761E-08-7.95930E-09 3.14986E-08 5.19589E-10-2.57617E-11-3.97021E-09
 -1        31-1.22474E-08 1.45580E-09 9.47475E-09-2.63584E-09 3.02508E-09 1.61650E-09
 -1        32 4.23908E-08-7.81856E-09-1.47777E-08-8.40878E-09-1.08462E-09 5.92682E-09
 -1        33 2.70530E-08-6.83622E-09-1.16032E-08-4.05114E-09-1.87441E-09-1.40637E-09
 -1        34-1.13890E-08 1.28349E-09 9.73860E-09 3.46700E-09-3.89122E-09 1.16923E-09
 -1        35-1.03799E-08-8.08436E-09 3.12876E-08-2.57099E-10 3.98409E-10-2.87004E-09
 -1        36 2.98200E-08-9.93936E-09-7.32784E-09-3.05046E-09-4.78096E-10-4.68859E-10
 -1        37 1.09904E-09-5.72975E-10-2.33714E-09-3.18450E-11 4.31607E-11 3.54311E-10
 -1        38-3.31187E-10 1.44308E-09-3.71698E-10-5.38865E-11-3.71360E-11 3.13988E-10
 -1        39-3.30589E-08 9.68206E-09 1.06585E-08 9.11092E-09-1.46570E-09-8.46559E-09
 -1        40-3.31489E-08 8.48111E-09 1.23205E-08-7.25777E-09 2.42458E-10-5.76175E-09
 -1        41-1.46100E-08 2.64922E-09 5.19871E-09-4.39119E-09-5.27589E-10-4.60692E-09
 -1        42 1.51488E-08-1.28288E-09-8.93042E-09 3.65722E-09 1.46259E-10-2.32193E-09
 -1        43 2.70722E-08-6.16748E-09 1.60612E-09 1.20594E-08 1.04587E-08 2.88991E-08
 -1        44 2.67718E-08-6.46466E-09-9.34343E-10-9.09032E-09-6.59349E-09 2.67383E-08
 -1        45 1.67877E-08-2.19334E-09-9.47831E-09-3.36584E-09 2.98568E-10-3.16090E-09
 -1        46-1.50254E-08 2.72049E-09 5.30734E-09 4.39332E-09 8.72423E-10-3.73880E-09
 -1        47-4.33155E-08 1.39626E-08 1.21333E-08-3.45569E-09-1.06668E-09-1.30361E-08
 -1        48-4.25232E-08 1.30797E-08 1.30534E-08 3.97718E-09 3.91536E-10-1.39327E-08
 -1        49-2.41194E-12 1.82820E-11-2.50184E-11 4.01236E-12 1.89404E-11-7.13688E-12
 -1        50 1.15978E-11 1.86199E-11-3.96417E-11 7.64546E-12 2.05643E-11-3.63698E-11
 -1        51-1.37255E-11 1.56133E-11-1.38342E-11-9.36531E-12 2.54572E-13-2.81046E-12
 -1        52-3.65237E-11-1.02389E-11 5.13106E-11-3.73643E-12-3.39713E-11-9.57743E-11
 -1        53 1.54353E-11-2.87065E-11 8.83999E-11-5.47028E-12-2.37544E-10-1.63025E-10
 -1        54 1.88787E-11-1.21390E-11 1.16468E-10-1.27036E-11-2.03671E-10-1.78521E-10
 -1        55 9.15664E-12-1.39911E-11 3.91411E-11-7.75931E-13-2.84345E-10-1.28751E-10
 -1        56-1.63254E-11 4.97039E-11-2.58105E-11-1.86069E-12-1.49416E-10-1.70056E-11
 -1        57-2.96023E-12 8.79755E-12-2.26011E-11 4.36637E-12-2.83941E-11-2.01291E-12
 -1        58-1.20275E-11 1.33921E-11-4.70567E-12 9.13288E-12-6.60228E-12 1.34693E-12
 -1        59 1.12587E-11 1.90497E-11-3.77897E-11-6.82568E-12-2.31466E-11-3.72165E-11
 -1        60-1.57938E-11 4.27563E-11-1.96265E-11-2.80972E-14 1.38430E-10-1.63024E-11
 -1        61 6.97993E-12-2.18876E-11 8.98085E-11 1.90030E-12 2.28859E-10-1.55875E-10
 -1        62 4.91586E-12 1.14107E-12 4.01543E-11-4.36991E-12 2.77560E-10-1.28558E-10
 -1        63 1.49179E-11-1.45631E-11 1.19376E-10 8.04548E-12 1.98181E-10-1.73371E-10
 -1        64-3.66625E-11-1.30362E-11 5.50781E-11 2.20670E-12 3.50621E-11-9.83290E-11
 -1        65-3.97820E-11-7.71771E-11 2.74038E-10-1.95290E-11-1.31319E-10-7.60475E-12
 -1        66-5.56465E-11-7.67583E-11 2.45409E-10-1.25632E-11-7.68635E-11-3.25868E-11
 -1        67-9.22852E-11-6.51985E-11 2.88148E-10 5.50304E-12-1.31576E-10-2.13634E-11
 -1        68 3.67107E-11-3.83728E-11 1.98891E-11-3.81166E-11 2.98780E-10-3.17519E-11
 -1        69 5.60398E-11 5.65521E-11-3.77094E-10 2.64221E-11 7.28783E-10-1.95690E-10
 -1        70 6.20245E-11 1.03012E-11-1.97660E-10 1.29953E-11 8.55594E-10-1.28043E-10
 -1        71 1.60831E-11 6.84716E-11-4.58379E-10 2.49883E-11 6.73897E-10-2.20048E-10
 -1        72 7.62300E-11 4.08706E-11-2.04912E-10-1.71540E-11 1.23725E-10-1.37556E-10
 -1        73 9.86756E-12 8.26694E-14 1.63401E-10-2.32177E-12 2.36571E-10-7.69776E-11
 -1        74-4.03905E-12-2.31486E-11 1.56520E-10 8.96279E-12 2.51414E-10-8.18717E-11
 -1        75-3.05959E-11-3.30033E-12 1.48883E-10-3.00240E-11 1.27499E-10-8.50762E-11
 -1        76 7.19475E-11-6.61100E-11-1.99678E-10 9.02908E-12-1.73888E-10-1.19668E-10
 -1        77 4.19013E-11-1.85443E-11-4.12251E-10 1.40354E-11-7.56763E-10-8.71535E-11
 -1        78 6.13190E-12 6.17415E-13-5.68803E-10 1.99675E-12-7.97158E-10-1.52312E-10
 -1        79 1.50913E-12-3.09894E-11-1.90868E-10-1.27455E-11-8.59226E-10-1.11110E-10
 -1        80 5.45853E-11-7.21850E-11 3.31486E-11 1.15756E-11-2.97371E-10-5.65762E-11
 -1        81-4.37518E-11 1.67260E-11 1.63546E-11 3.22458E-11-7.66515E-12-2.83110E-11
 -1        82-5.01654E-11 3.15509E-11 1.95010E-11 2.36678E-11-2.51037E-11-2.43487E-11
 -1        83 2.25377E-11 6.19547E-12 1.11764E-11 4.50494E-11-3.90854E-11-3.79633E-11
 -1        84-1.02098E-12 6.44142E-12-6.66845E-12 1.05209E-11 2.52962E-12-3.33315E-11
 -1        85-3.78691E-11 2.31594E-11 1.59430E-11 3.22357E-11-1.44733E-11-2.69991E-11
 -1        86-1.98624E-11 8.51103E-12 1.90067E-11 3.36477E-11-3.69535E-11-3.27796E-11
 -1        87 7.74331E-12-2.70961E-11 5.37974E-11 1.30108E-11-3.67836E-11-3.01121E-11
 -1        88 3.15398E-12-4.05376E-12-6.25743E-11-2.13145E-12 3.76648E-11-2.25355E-10
 -1        89 7.46785E-12 6.28616E-13-3.10860E-10-2.20782E-12 2.69204E-10-2.70249E-10
 -1        90 1.33171E-11 6.34560E-13-6.88771E-10-4.12853E-12 5.61107E-10-3.03138E-10
 -1        91 7.26018E-17 9.76058E-17 1.13020E-10-5.17426E-17-9.51048E-11-2.18672E-10
 -1        92 1.93084E-16-1.13034E-16-1.71836E-10-1.27538E-16 1.51806E-10-2.49448E-10
 -1        93 2.18661E-16-9.96978E-17-4.94185E-10-1.98866E-16 4.12991E-10-2.90997E-10
 -1        94-1.42722E-16-1.09823E-16-8.03318E-10-1.68144E-16 6.71590E-10-2.57423E-10
 -1        95-1.78454E-12 3.94901E-12-2.71627E-11-3.24994E-12-1.42918E-11-2.38235E-10
 -1        96-4.63175E-13 4.06688E-12-2.91570E-10-5.68259E-12-2.40032E-10-2.80634E-10
 -1        97-3.24901E-12 8.49802E-12-6.09569E-10-8.36538E-12-4.98876E-10-3.00681E-10
 -1        98 1.20893E-16-3.46261E-18 1.05669E-10 4.13991E-17 9.50126E-11-2.08050E-10
 -1        99 1.08190E-16-1.02091E-16-1.67501E-10 3.29341E-17-1.31082E-10-2.52604E-10
 -1       100 1.14781E-17 8.15773E-17-4.17173E-10 1.31212E-16-3.68293E-10-2.74337E-10
 -1       101-1.51688E-16-4.79605E-16-8.86171E-10 9.60792E-17-6.58728E-10-2.64979E-10
 -1       102-4.34229E-11 1.59236E-11 1.71455E-11-2.92309E-11 7.56550E-12-2.83249E-11
 -1       103-5.69293E-11 3.49976E-11 2.00700E-11-3.33622E-11 2.55432E-11-3.15214E-11
 -1       104 3.15679E-11 4.76456E-12 9.21758E-12-2.88509E-11 5.20920E-11-1.79357E-11
 -1       105-7.11219E-12 1.72665E-11-8.46407E-12-8.69018E-12 6.52259E-14-3.39002E-11
 -1       106-4.35986E-11 2.67930E-11 1.33015E-11-3.62741E-11 9.94065E-12-2.81751E-11
 -1       107-2.24746E-11 9.05417E-12 1.24328E-11-3.30277E-11 5.14407E-11-2.54231E-11
 -1       108 8.69265E-12-2.13697E-11 5.60413E-11-1.85417E-11 5.87516E-11-2.87404E-11
 -1       109 6.22030E-10-8.68732E-10-1.16693E-09 4.19785E-11-2.55778E-09 2.19811E-10
 -1       110 1.42441E-09 4.09442E-10-9.54209E-09-9.49971E-11-3.03656E-09 9.79226E-10
 -1       111 2.03599E-09-7.62809E-12-1.21075E-08 4.51689E-11-2.72762E-10 1.74471E-09
 -1       112 1.53796E-09 2.40844E-10-9.50172E-09 7.93216E-11 3.14334E-09 1.15713E-09
 -1       113 5.98094E-10-8.62666E-10-1.11226E-09 6.83921E-11 2.56815E-09 2.47113E-10
 -1       114-1.54299E-15 3.10219E-15-3.90082E-10 8.92451E-17-1.43926E-09 1.00821E-10
 -1       115-1.45916E-14-1.78600E-15-4.57560E-09 1.85495E-15-3.35264E-09 7.70457E-10
 -1       116-2.38414E-14-1.42546E-14-1.00411E-08 1.38768E-15-1.35746E-09 1.57807E-09
 -1       117-2.11924E-14-1.33177E-14-1.00001E-08-1.52644E-16 1.35376E-09 1.91377E-09
 -1       118-1.57448E-14-1.97264E-15-4.44215E-09-1.08560E-15 3.36405E-09 7.87966E-10
 -1       119-1.59365E-15 3.07210E-15-3.77860E-10-1.22427E-16 1.46925E-09 1.15426E-10
 -1       120-3.41853E-12 2.24910E-10 2.61616E-10-3.14992E-11 9.51063E-10 1.61094E-10
 -1       121-1.37344E-10 4.83434E-10 2.90232E-09-4.27129E-10 2.67612E-09 1.50207E-09
 -1       122-4.44736E-10-6.41696E-10 8.99639E-09-3.09674E-10-6.19132E-10 3.59557E-09
 -1       123-1.12344E-10 4.82793E-10 2.96649E-09 4.53113E-10-2.61915E-09 1.39200E-09
 -1       124-5.07795E-12 2.28811E-10 2.63411E-10 3.09072E-12-9.85968E-10 1.83274E-10
 -1       125 5.97756E-16-1.16551E-15 1.14528E-10 1.54731E-16 5.28225E-10 6.32189E-11
 -1       126 3.65788E-15-6.84022E-15 1.66720E-09-9.73920E-16 1.86954E-09 1.03451E-09
 -1       127 6.70795E-15 1.23257E-14 7.54342E-09-5.62540E-15 2.06587E-09 3.16486E-09
 -1       128 7.37585E-15 1.27833E-14 6.36413E-09 4.86123E-15-1.83250E-09 2.83810E-09
 -1       129 2.93990E-15-5.97079E-15 1.67054E-09 1.34734E-15-1.83169E-09 1.04275E-09
 -1       130 6.58623E-16-1.30485E-15 1.12968E-10-2.09443E-16-5.44745E-10 5.97614E-11
 -1       131-5.40180E-10 8.96500E-10-2.07364E-10-4.45627E-10-2.93325E-10-1.96863E-10
 -1       132-1.94750E-10 5.78796E-10-1.58922E-10 9.13842E-11 8.47899E-12-2.63229E-11
 -1       133-8.88049E-10 3.16196E-11 1.13621E-09-2.40410E-09-2.69287E-09-3.66406E-11
 -1       134-4.10619E-10 6.22803E-10 3.49692E-11-1.34091E-10-1.81417E-10-4.22952E-11
 -1       135-9.46982E-11 2.83920E-10-6.72066E-11-3.16200E-12-2.23436E-11 2.94503E-12
 -1       136-1.64668E-10 5.73136E-10-1.82823E-10-1.18195E-10-1.13963E-11-3.38235E-11
 -1       137-6.54164E-10 1.09586E-09-3.00239E-10 3.66705E-10 2.78887E-10-2.72697E-10
 -1       138-1.00069E-10 2.82877E-10-7.37347E-11 4.02328E-12 1.05828E-11 9.32804E-12
 -1       139-4.46528E-10 7.02166E-10-6.24587E-12 5.56896E-11 1.58473E-10-6.27387E-11
 -1       140-8.39400E-10 3.87733E-11 1.07615E-09 2.21299E-09 2.54154E-09-1.10101E-11
 -1       141-2.15330E-09-2.95601E-09 7.48320E-09 1.16554E-11-3.11130E-10 2.61221E-09
 -1       142-1.09882E-10-1.81795E-10 5.00789E-10-2.12512E-10-8.86587E-10 8.17535E-11
 -1       143 1.84397E-09-3.63777E-09-6.73170E-10-6.43298E-11 3.75098E-09-6.36293E-10
 -1       144-4.79071E-13 8.14144E-11-6.96132E-11-2.65868E-11-2.56491E-10 2.39552E-11
 -1       145 9.94146E-09 9.80637E-09-3.61647E-08 1.86290E-10 6.32897E-09-1.03457E-08
 -1       146 4.05525E-09 1.64615E-08-4.96685E-08 1.02661E-09-4.49603E-09-2.28652E-08
 -1       147 9.36372E-09 1.59490E-08-5.39295E-08-1.32666E-09 4.42355E-09-2.21076E-08
 -1       148 1.37058E-08 1.47929E-08-5.18054E-08-1.13578E-09-8.02897E-09-1.62336E-08
 -1       149 6.85245E-09 1.62346E-08-5.12209E-08 5.66860E-10 1.56049E-09-2.48062E-08
 -1       150 1.44818E-08 1.49233E-08-5.31775E-08 5.33012E-10 7.03322E-09-1.61447E-08
 -1       151 1.15671E-08 7.45637E-09-3.60022E-08 1.55364E-10-1.03331E-08-7.48507E-09
 -1       152-1.03738E-10-1.90973E-10 4.94695E-10 2.06060E-10 8.75772E-10 7.87478E-11
 -1       153 4.93763E-12 7.94514E-11-8.10830E-11 2.67158E-11 2.84853E-10 2.09637E-11
 -1       154 1.76736E-09-3.65273E-09-6.03779E-10 1.76402E-11-3.69513E-09-5.79517E-10
 -1       155-2.01746E-09-1.12318E-09 6.89721E-09-2.64973E-09-2.51847E-09 6.23031E-09
 -1       156-3.79668E-09 2.81912E-11 6.42406E-09-1.74913E-09-1.90138E-09 4.30690E-09
 -1       157-2.04078E-09-1.64681E-09 7.32030E-09-2.26296E-09-2.51460E-09 4.79671E-09
 -1       158-2.62531E-09-2.78223E-10 7.83652E-09-2.51700E-09-2.82022E-09 6.24172E-09
 -1       159-3.28350E-09 9.13912E-10 1.71042E-09-1.45956E-09-9.72511E-10 4.07545E-10
 -1       160-1.92125E-09 8.51406E-10-3.90700E-09-3.23172E-12 3.59452E-10-5.36820E-09
 -1       161 2.95928E-09-1.38232E-09-1.05756E-08 1.93074E-09 6.07152E-09-5.94025E-09
 -1       162 2.96599E-09-1.28171E-09-1.02385E-08-2.06335E-09-5.93581E-09-6.18163E-09
 -1       163-1.56548E-09 7.37216E-10-3.84082E-09-1.45810E-10-3.06994E-10-5.57643E-09
 -1       164-2.18399E-09-2.36277E-10 6.68404E-09 3.46062E-09 3.14309E-09 6.17464E-09
 -1       165-4.00080E-09-1.92691E-10 6.90455E-09 1.94172E-09 2.00337E-09 4.22009E-09
 -1       166-1.85258E-09-6.18588E-10 7.36375E-09 3.53292E-09 3.73032E-09 5.23613E-09
 -1       167-2.32100E-09-2.37000E-10 7.96271E-09 3.41319E-09 3.53403E-09 6.08423E-09
 -1       168-3.66251E-09 6.74009E-10 2.12685E-09 1.46013E-09 6.15424E-10 3.35461E-10
 -1       169 2.78040E-08-5.73711E-09-1.01051E-08 6.55390E-09 2.91466E-09 8.65143E-09
 -1       170 2.43977E-08-4.92024E-09-1.00793E-08 5.99599E-09 3.39324E-09 6.45627E-09
 -1       171 3.18038E-08-6.46284E-09-8.47507E-09 8.93195E-09 3.41083E-09 1.13031E-08
 -1       172 2.79427E-08-9.80611E-09-8.58817E-09 3.73922E-09 1.03618E-09 9.35509E-10
 -1       173 7.71088E-10-1.19310E-08 2.92436E-08 1.30009E-09 5.65698E-10 2.57756E-08
 -1       174 2.88869E-08-1.19029E-08-6.77952E-10-1.80297E-10 6.21106E-10 2.35648E-08
 -1       175-5.60577E-09-9.25772E-09 2.94981E-08 3.88174E-10 2.25998E-10 1.03177E-08
 -1       176 1.62420E-08-1.34935E-08 1.52826E-08 1.23433E-10 6.03073E-11 2.67905E-08
 -1       177 3.12023E-08-1.07989E-08-7.00131E-09 1.78035E-09 5.08950E-10 1.06203E-08
 -1       178-9.46285E-09-4.43202E-09 2.30544E-08-1.52476E-09 3.58165E-09-7.76380E-10
 -1       179-3.65463E-09-2.12726E-09 1.85088E-08 3.24294E-09 5.66104E-09 2.72362E-08
 -1       180 3.84642E-08-8.43455E-09-6.22519E-09 1.04500E-08 2.96287E-09 2.69224E-08
 -1       181-1.08870E-08-2.63667E-10 1.16086E-08-1.82256E-10 5.93859E-09 1.05966E-08
 -1       182 1.47150E-08-5.21390E-09 4.99999E-09 5.91103E-09 3.90885E-09 2.51772E-08
 -1       183 4.58329E-08-8.87556E-09-1.08683E-08 1.31243E-08 1.38594E-09 1.63544E-08
 -1       184 3.28245E-08-6.80887E-09-1.20740E-08-7.04544E-09-2.35107E-09 6.41347E-09
 -1       185 3.29558E-08-6.03043E-09-1.15254E-08-8.54494E-09-2.74982E-09 7.48188E-09
 -1       186 2.74375E-08-5.88426E-09-1.13405E-08-5.95552E-09-2.46406E-09 3.65113E-09
 -1       187-1.84125E-10-3.39096E-09 1.33985E-08-2.73603E-09-5.37881E-09 2.33725E-08
 -1       188 3.95648E-08-8.46886E-09-8.53744E-09-8.55760E-09-2.48015E-09 2.56013E-08
 -1       189-8.24787E-09-7.08165E-10 1.06689E-08 4.35349E-10-5.98477E-09 9.52353E-09
 -1       190 1.81730E-08-5.95859E-09 2.07541E-09-4.54794E-09-3.38292E-09 2.45499E-08
 -1       191 4.69970E-08-9.59043E-09-1.23605E-08-1.18951E-08-9.63390E-10 1.59658E-08
 -1       192-9.31684E-09-4.77938E-09 2.31338E-08 1.57171E-09-3.34241E-09 2.75148E-10
 -1       193 6.64507E-10-1.23122E-08 2.96244E-08-8.98203E-10-3.24300E-10 2.58057E-08
 -1       194 2.89614E-08-1.17586E-08-7.88684E-10 7.98386E-11-4.10109E-10 2.37053E-08
 -1       195-4.67259E-09-9.80468E-09 2.94541E-08 3.22034E-10-2.21396E-10 1.08090E-08
 -1       196 1.61251E-08-1.32811E-08 1.55627E-08 2.49547E-10 1.39059E-10 2.67726E-08
 -1       197 3.09135E-08-1.10746E-08-7.06811E-09-2.11884E-09 1.87177E-11 1.08418E-08
 -1       198 2.84393E-08-1.01378E-08-8.15079E-09-4.69584E-09-1.83478E-09-7.42054E-10
 -1       199 1.00739E-09 3.58613E-10-3.12975E-09 2.45510E-10 6.35483E-10 1.03386E-10
 -1       200 2.73516E-09-1.03837E-09-1.41731E-09 1.59751E-10 6.93190E-10-1.19099E-09
 -1       201 6.13731E-09-7.68748E-10-3.27820E-09 2.49388E-09-3.97665E-11 2.11714E-10
 -1       202 9.18213E-09-1.48255E-09-4.09638E-09 6.78604E-09 1.59090E-09 1.27920E-09
 -1       203 1.16615E-08-8.87973E-09-1.24240E-09 5.11892E-10-6.40368E-11 3.41803E-09
 -1       204 5.33906E-09 4.91319E-10-2.97213E-09-7.47535E-09-2.87488E-09 1.40374E-09
 -1       205 7.44890E-09-1.73999E-09-3.50187E-09-2.54289E-09-2.52417E-10 1.03793E-10
 -1       206 2.61095E-09-8.80954E-10-1.45042E-09-1.79105E-10-5.90922E-10-1.19015E-09
 -1       207 1.01689E-09 4.15115E-10-3.16869E-09-1.94851E-10-7.12594E-10 8.46684E-11
 -1       208 8.99957E-10-7.47191E-11-2.63028E-09 2.63433E-10 1.96536E-10 9.96946E-11
 -1       209 1.59617E-09-1.13328E-10-2.67777E-09 2.45588E-10 6.75277E-10-2.36336E-10
 -1       210 4.52722E-09-1.25910E-09-1.12273E-09 1.62451E-09 6.18526E-10 5.95781E-12
 -1       211 9.85565E-09-8.35308E-10-5.71466E-09 4.61279E-09 5.08810E-10-1.48340E-10
 -1       212 7.46429E-09-5.54289E-09-1.04161E-09 6.68130E-09 5.78322E-10 1.10208E-09
 -1       213 1.12424E-08-4.65242E-09-2.55486E-09-6.18557E-09-1.68995E-09 9.91691E-10
 -1       214 6.27678E-09-1.09773E-10-3.01548E-09-5.89902E-09-1.73604E-09 1.91520E-09
 -1       215 4.68823E-09-1.56816E-09-1.39640E-09-1.23115E-09-3.05523E-10-1.37658E-10
 -1       216 1.76884E-09-9.35156E-11-2.67256E-09-2.50781E-10-7.23921E-10-2.94795E-10
 -1       217 8.64657E-10-5.47641E-11-2.62064E-09-2.79233E-10-1.57774E-10 1.04079E-10
 -1       218 4.66562E-10 4.71448E-10-1.46436E-09 6.74905E-11-1.89487E-11-1.29267E-10
 -1       219 3.36070E-10 7.46889E-11-1.83903E-09 4.20180E-11 1.20176E-11-3.34712E-12
 -1       220 5.06808E-10 8.19345E-10-9.56274E-10 1.77547E-11-2.62768E-11-2.12861E-11
 -1       221-1.72499E-10 6.37989E-10-6.10940E-11-2.13378E-10 7.43274E-10-5.82547E-11
 -1       222-2.09724E-09 9.83888E-10 6.23345E-10 1.32077E-10 6.36299E-10-4.72171E-10
 -1       223-4.05804E-09 5.96127E-10 1.26798E-09-2.64944E-09-2.02636E-10-4.07070E-10
 -1       224-1.38919E-08 2.69546E-09 4.42759E-09-1.17428E-08 1.01030E-09 1.54895E-09
 -1       225-3.21183E-08 1.00261E-08 6.47789E-09 1.07701E-10-1.23885E-10 8.19127E-09
 -1       226-8.36694E-09-1.06629E-10 3.42217E-09 1.23483E-08-2.79932E-09 2.60030E-09
 -1       227-4.71819E-09 8.29795E-10 1.55828E-09 2.88544E-09 3.26303E-10-1.72727E-10
 -1       228-2.02933E-09 9.56311E-10 6.33654E-10-1.48340E-10-5.97802E-10-5.66456E-10
 -1       229-8.77710E-11 5.70491E-10-3.48678E-11 2.69711E-10-7.40049E-10 4.70115E-13
 -1       230-1.70846E-10 1.00984E-09-1.93734E-10-2.37732E-10 1.99637E-10-3.98302E-11
 -1       231-9.66599E-10 6.88121E-10 1.36225E-10-2.46647E-10 6.09167E-10-1.20436E-10
 -1       232-3.56467E-09 9.14298E-10 1.29089E-09-1.25808E-09 5.53143E-10-8.80617E-12
 -1       233-8.32254E-09 1.26576E-09 2.80851E-09-5.38916E-09 9.65053E-10-1.52391E-10
 -1       234-2.49206E-08 6.29640E-09-5.50871E-10-9.70750E-09 2.59886E-10-1.86432E-09
 -1       235-2.52358E-08 4.34911E-09 3.41301E-10 9.79986E-09-9.98106E-10-3.44728E-09
 -1       236-3.58228E-09 2.85404E-10 1.43773E-09 6.81475E-09-1.68249E-09 2.97050E-09
 -1       237-3.50829E-09 1.09081E-09 1.39980E-09 1.07832E-09-2.67906E-10-1.27313E-10
 -1       238-8.54677E-10 6.41456E-10 1.60961E-10 1.14741E-10-6.51256E-10-1.41925E-10
 -1       239-9.03688E-11 1.02217E-09-1.98767E-10 1.88562E-10-2.65065E-10 8.08612E-11
 -1       240-4.23295E-08 1.05247E-08-7.47236E-09-1.14278E-09 5.96940E-10-2.50116E-08
 -1       241-4.64879E-08 1.14853E-08-8.22806E-09 4.12570E-10 9.70557E-11-2.80499E-08
 -1       242-4.90307E-08 9.57485E-09 1.00524E-08-8.00426E-09 8.73280E-10-1.10075E-08
 -1       243-4.16679E-08 9.18176E-09-1.37004E-08-8.36439E-10-4.48983E-10-2.17257E-08
 -1       244-4.92687E-08 1.10245E-08 5.00473E-09 7.10705E-09-2.27481E-09-1.72543E-08
 -1       245-1.97525E-08 4.97482E-09 8.23296E-09-4.78525E-09 7.33589E-10-5.12605E-09
 -1       246-1.85256E-08 4.73600E-09 7.45003E-09-3.77009E-09 4.01024E-10-4.66514E-09
 -1       247-2.14031E-08 5.21680E-09 9.57545E-09-5.65889E-09 7.54154E-10-5.24347E-09
 -1       248 9.08486E-10 7.47367E-10-3.20330E-09-1.46229E-11-1.44039E-09-8.71269E-09
 -1       249 1.82591E-08-3.75421E-09-9.72825E-09 3.20864E-09 1.09752E-09 1.83047E-10
 -1       250 1.73364E-08-3.27263E-09-9.49527E-09 2.41323E-09 8.46962E-10-5.87650E-10
 -1       251 1.93757E-08-4.05764E-09-1.03151E-08 3.79947E-09 1.49710E-09 1.03298E-09
 -1       252 3.90267E-08-7.25848E-09-2.76826E-09 1.33595E-08 7.22594E-09 2.51068E-08
 -1       253 5.48263E-08-9.80455E-09-1.49864E-08 1.94666E-10 1.89265E-10 1.55103E-08
 -1       254 4.03407E-08-7.41197E-09-4.58928E-10 1.06395E-08 7.91229E-09 3.53224E-08
 -1       255 4.68916E-08-8.88859E-09-1.25629E-09-8.43018E-09-3.94654E-09 3.62468E-08
 -1       256 3.54664E-08-7.58611E-09-5.03199E-09-9.79370E-09-4.33073E-09 2.33848E-08
 -1       257 2.09088E-08-4.31646E-09-1.11549E-08-3.06796E-09-1.01016E-09-2.75292E-09
 -1       258 2.21491E-08-4.73735E-09-1.16742E-08-3.48845E-09-1.35704E-09-2.14052E-09
 -1       259 2.00327E-08-3.86478E-09-1.08699E-08-2.48728E-09-7.11730E-10-3.16095E-09
 -1       260 1.97566E-09 6.85087E-11-3.02782E-09 3.17424E-11 2.14878E-09-8.77623E-09
 -1       261-2.23992E-08 5.18546E-09 9.03798E-09 6.16769E-09-5.83589E-10-4.73684E-09
 -1       262-2.53430E-08 5.73279E-09 1.04403E-08 8.25441E-09-2.64760E-10-5.33453E-09
 -1       263-2.05627E-08 5.12448E-09 7.95677E-09 4.25259E-09-3.75656E-10-4.06298E-09
 -1       264 2.44144E-08-7.02367E-09-7.32670E-09 1.28765E-09 1.13788E-10-1.49719E-09
 -1       265-2.93567E-08 9.99258E-09 8.35653E-09-1.83370E-09-4.89572E-10-8.52602E-09
 -1       266-4.37116E-08 1.41005E-08 1.43056E-08-6.44264E-09-2.41421E-09-1.08866E-08
 -1       267 2.46392E-08-7.25095E-09-7.23253E-09-2.16154E-09-4.05227E-10-2.79985E-09
 -1       268 2.90814E-09-3.25362E-09 4.38184E-09-2.05861E-10 9.91733E-11 6.70819E-09
 -1       269 1.00262E-08-5.62662E-09 2.86738E-09-2.35913E-11-5.14866E-11 1.13870E-08
 -1       270 2.16195E-08-9.55228E-09 4.68886E-10-2.86329E-10 1.57426E-10 1.71123E-08
 -1       271 4.22249E-08-1.72643E-08-3.09781E-09-3.93110E-10 3.95988E-10 2.59182E-08
 -1       272 7.94163E-08-2.85534E-08-2.58646E-08-3.81501E-10-1.05309E-09 1.73511E-08
 -1       273 2.54203E-10-2.95434E-09 6.25037E-09-9.73116E-11-4.58388E-10 5.60087E-09
 -1       274 5.71349E-09-4.27973E-09 3.39944E-09-2.13486E-10-7.00704E-11 8.57413E-09
 -1       275 1.46531E-08-7.28038E-09 1.27817E-09-4.75369E-10 8.86623E-11 1.37397E-08
 -1       276 3.07125E-08-1.29418E-08-1.62204E-09-8.70277E-10 9.38830E-10 2.06028E-08
 -1       277 5.82246E-08-2.09764E-08-1.01533E-08-1.25240E-10 6.63189E-11 2.43041E-08
 -1       278 8.50398E-08-2.35866E-08-2.96054E-08 3.99878E-09-1.05937E-09 9.95042E-09
 -1       279 1.99099E-09-3.33322E-09 4.98768E-09 3.24616E-10 5.48773E-10 6.61235E-09
 -1       280 9.14468E-09-5.32568E-09 3.09693E-09 1.27405E-10 4.37083E-11 1.10602E-08
 -1       281 2.02442E-08-8.86748E-09 8.49372E-10 1.97298E-10 5.74044E-11 1.81450E-08
 -1       282 4.23786E-08-1.62598E-08-4.76793E-09 5.94125E-10-3.83143E-10 2.47816E-08
 -1       283 7.50243E-08-2.48965E-08-2.10601E-08-2.12985E-09 3.02495E-10 2.15848E-08
 -1       284-1.70795E-10-3.32240E-09 7.02462E-09 1.15007E-09 1.59674E-09 5.43487E-09
 -1       285 5.28894E-09-3.82198E-09 3.80188E-09 7.37474E-11 2.28382E-10 8.68490E-09
 -1       286 1.40648E-08-6.96058E-09 2.06037E-09 1.49957E-10 1.13628E-10 1.45254E-08
 -1       287 2.94176E-08-1.17813E-08-1.93276E-09 5.86318E-10 6.76971E-10 2.08513E-08
 -1       288 5.93711E-08-1.99610E-08-1.10120E-08 4.11330E-11-9.07215E-11 2.52361E-08
 -1       289 8.29301E-08-2.31006E-08-2.87322E-08-3.45115E-09 8.04007E-10 8.67445E-09
 -1       290-2.84126E-08 2.43511E-08-3.01237E-08-2.22952E-09-2.29831E-09-5.51106E-08
 -1       291-1.05353E-09 2.13110E-08-5.08991E-08-3.64542E-10 1.59711E-09-3.58285E-08
 -1       292-4.53185E-08 1.99285E-08-3.95322E-09-5.32876E-10-3.66046E-10-3.70848E-08
 -1       293-2.88503E-08 2.43811E-08-2.93731E-08 1.43241E-09 1.84675E-09-5.41924E-08
 -1       294-8.49425E-10 2.10467E-08-4.99516E-08 1.26057E-12-1.67531E-09-3.52004E-08
 -1       295-4.46863E-08 1.96804E-08-3.40719E-09-1.63099E-10 2.05417E-11-3.66033E-08
 -1       296-4.24313E-08 1.31293E-08 1.44814E-08 9.26380E-09 2.06119E-09-1.23698E-08
 -1       297-3.10056E-08 9.62095E-09 9.07708E-09 1.51654E-09 3.30262E-10-9.60140E-09
 -1       298-4.06803E-09-2.31917E-09 1.02401E-08-1.52895E-09 5.93544E-10-7.01944E-09
 -1       299-4.07554E-09-2.15908E-09 9.85246E-09 1.73867E-09-1.23520E-10-7.30652E-09
 -1       300-6.93911E-09 1.52224E-09 1.28041E-09-2.91695E-09 1.41469E-09-2.44121E-09
 -1       301-7.00752E-09 1.40092E-09 2.26110E-09 2.10310E-09-1.28585E-09-2.89818E-09
 -1       302 1.02478E-13-4.82808E-12 2.79713E-11 3.89025E-13-7.30108E-11-9.49820E-11
 -1       303-6.71289E-12-1.15182E-11 2.75466E-11 2.69983E-12-9.85824E-11-7.42474E-11
 -1       304-3.43376E-13 3.57818E-11-1.77404E-11 2.47761E-12-1.26913E-10-3.46460E-11
 -1       305-2.61205E-12 2.89943E-11-1.48314E-11-2.23475E-12 1.17519E-10-3.36292E-11
 -1       306-8.94950E-12-7.45168E-12 3.15278E-11-6.08071E-13 6.91560E-11-9.08373E-11
 -1       307-1.28986E-11-1.04378E-11 2.81707E-11 6.71848E-13 8.83211E-11-6.54309E-11
 -1       308 3.84357E-11 1.27194E-12-1.21444E-10 9.70061E-12 2.32763E-10-8.52311E-11
 -1       309 3.63415E-11 1.19935E-11-1.16735E-10-3.45877E-12 2.18732E-10-1.28451E-10
 -1       310 6.67573E-11 3.91377E-11-2.03342E-10-1.66925E-11 1.20186E-10-1.13182E-10
 -1       311 6.36499E-11-2.69419E-11-2.05313E-10 3.38101E-12-1.87561E-10-1.30161E-10
 -1       312 4.65406E-11-8.52958E-11-1.04073E-10 1.46920E-11-2.50108E-10-6.89144E-11
 -1       313 6.50513E-11-1.50068E-11-1.15966E-10 6.61743E-12-2.02379E-10-9.33012E-11
 -1       314-2.95679E-11-2.76745E-11 2.42121E-12 3.63602E-11 7.24025E-11-1.81869E-10
 -1       315-3.83644E-11 9.71694E-12-9.96132E-12 1.10883E-11 4.80193E-11-1.59557E-10
 -1       316 7.74232E-11-2.07706E-11-7.39011E-11 2.81180E-11 3.98034E-11-1.73161E-10
 -1       317-3.25851E-11 2.62809E-12 2.13648E-11-2.27454E-12-5.66399E-12-1.58041E-10
 -1       318-3.11925E-11-1.78650E-11 9.52320E-11-2.83899E-12-6.90359E-11-1.64961E-10
 -1       319-6.55038E-12 1.27222E-11-1.55672E-11-3.31946E-12 9.26950E-12-1.05245E-10
 -1       320-4.51616E-11 2.09434E-11 1.44798E-11 4.82156E-12-1.06318E-11-9.84407E-11
 -1       321-1.04193E-11-2.94460E-12-3.71130E-12 2.88764E-12 2.30555E-11-1.99127E-10
 -1       322 6.27309E-11 1.15929E-11-3.80656E-10 1.53183E-11 3.33672E-10-1.65731E-10
 -1       323 5.78456E-11-8.28560E-11 5.98821E-11 1.29909E-11-7.83541E-13-1.26082E-10
 -1       324 4.20251E-11-3.88869E-11 1.57085E-11 2.29292E-11 2.42063E-11-1.06980E-10
 -1       325 3.51334E-11-4.36441E-12-3.98531E-10 1.74210E-11 3.01063E-10-2.29843E-10
 -1       326-2.96867E-11 9.11611E-12 4.61770E-12 8.60916E-12 8.28687E-12-9.89617E-11
 -1       327-3.35383E-11 7.37180E-12 5.47327E-12 1.66154E-11 1.35370E-11-9.87793E-11
 -1       328-3.24316E-11 1.36372E-11 1.00827E-11-5.09917E-12 1.29129E-11-1.64988E-10
 -1       329-4.05503E-13-4.04534E-11 2.33109E-11 2.89591E-11 6.27265E-12-1.28323E-10
 -1       330-4.82971E-11-8.32450E-12 1.18453E-11 1.47186E-11 1.58859E-11-9.96854E-11
 -1       331-2.98555E-11-1.98832E-11 5.29747E-12 1.77864E-11 7.32657E-11-1.58898E-10
 -1       332 6.40646E-12-3.40618E-11 1.42926E-11 1.72086E-11 5.62986E-11-1.94794E-10
 -1       333-1.83604E-11 2.53281E-11-1.45999E-10 1.36664E-11 1.42842E-10-2.26492E-10
 -1       334-2.34233E-11 8.24431E-12-5.68927E-11 1.36022E-11 5.02122E-11-1.96965E-10
 -1       335-1.79427E-11 2.43710E-11-3.03648E-10 2.46769E-11 2.83580E-10-2.71074E-10
 -1       336-1.48797E-11-1.14553E-11-1.86025E-10 3.24082E-11 1.90124E-10-2.26397E-10
 -1       337-3.88233E-11 2.24272E-11-2.35095E-11-1.97538E-12-3.17896E-11-1.61212E-10
 -1       338-1.84419E-11-2.15187E-11-3.68981E-11-4.33312E-11-1.02519E-10-1.79363E-10
 -1       339 7.02062E-11-3.44654E-11-5.86036E-11-3.39579E-11-5.77463E-11-1.62886E-10
 -1       340-3.99400E-11 1.13433E-11 1.95694E-11 2.66940E-14 1.14691E-11-1.43480E-10
 -1       341-3.47212E-11-2.16422E-12 8.87422E-11-7.41534E-12 8.47200E-11-1.58152E-10
 -1       342-1.76243E-11 1.75005E-11-9.47743E-12 1.97054E-12-8.76080E-12-1.02508E-10
 -1       343-4.50941E-11 2.42399E-11 1.33662E-11-2.93161E-12 1.28891E-11-9.53803E-11
 -1       344-1.96824E-11 4.34994E-12 1.47106E-11-7.57782E-12 1.18764E-11-1.91933E-10
 -1       345 4.83550E-11-3.24443E-11 4.09584E-11-6.18584E-12 7.56080E-11-1.17223E-10
 -1       346 3.86162E-11 4.08569E-11-4.31932E-10-2.56858E-11-3.14155E-10-1.94075E-10
 -1       347 4.80920E-11-5.83641E-11 2.13879E-11-7.64743E-12-2.40931E-11-1.06277E-10
 -1       348 3.20452E-11 1.14460E-11-3.83804E-10-2.34066E-11-2.80694E-10-2.30611E-10
 -1       349-2.26374E-11 2.07937E-11-1.53611E-10-1.33702E-11-1.31878E-10-2.26615E-10
 -1       350-2.15988E-11 2.36280E-11-5.13378E-11-1.02248E-11-2.73504E-11-2.09755E-10
 -1       351-3.52576E-11 1.68133E-11-1.34354E-12 3.42455E-12 4.55266E-12-1.60374E-10
 -1       352-5.99731E-12-6.94819E-12-3.06537E-10-4.12259E-11-3.02302E-10-2.50824E-10
 -1       353-7.20695E-12-9.65398E-12-2.10955E-10-3.04954E-11-1.90481E-10-2.38666E-10
 -1       354-3.15271E-11-1.71154E-12-2.76071E-11-8.36091E-12-6.09214E-11-1.63102E-10
 -1       355 1.92701E-11-5.88072E-11-2.19337E-11-4.13359E-11-9.54218E-11-1.94915E-10
 -1       356-3.72525E-11 4.28349E-12 7.77979E-12-1.14852E-11-1.00352E-11-1.02743E-10
 -1       357-3.84151E-11 1.93817E-11 5.09066E-12-9.00845E-12-3.07561E-12-1.01609E-10
 -1       358-5.14042E-11 1.18559E-11 6.46352E-12-1.22784E-11-2.52103E-11-1.08628E-10
 -1       359 3.05496E-12-2.38047E-11 1.16215E-11-3.17240E-11-1.42818E-11-1.12829E-10
 -1       360-3.34488E-10 3.24022E-10-6.93322E-11 2.73378E-10-2.23313E-10-2.57990E-10
 -1       361-2.45687E-10 1.99828E-10-1.51261E-10-1.30233E-10-1.63974E-10-4.66314E-10
 -1       362 3.72501E-11-5.25896E-10-3.54957E-12 2.18241E-10 1.16437E-09-3.10382E-10
 -1       363-1.72722E-11 5.36305E-11-3.81014E-11-7.60208E-12 1.17190E-10-4.82292E-11
 -1       364-9.33960E-12 2.42713E-11-1.68423E-11 1.47423E-11-7.94214E-11-8.69386E-11
 -1       365 5.90622E-13-3.59800E-10 8.17283E-11-1.58678E-10-9.01862E-10-2.22861E-10
 -1       366-2.37233E-10-1.01829E-10-5.52745E-10 1.05140E-10 6.03413E-11-1.49469E-09
 -1       367-2.40256E-10-1.05299E-09 4.72698E-09 6.55962E-11 6.42552E-12 2.27642E-09
 -1       368-1.00152E-11 4.09176E-11 1.21665E-11-1.74149E-12 2.22711E-10-1.03242E-10
 -1       369-1.76440E-12 1.65275E-12 2.65307E-11-1.30806E-12-2.34543E-10-1.09812E-10
 -1       370 8.58141E-11-2.31407E-10-9.26688E-11 6.75562E-12-8.07172E-10-1.66920E-10
 -1       371 6.47647E-11-2.29851E-10-7.10259E-11 5.09080E-12 8.91840E-10-1.68480E-10
 -1       372-5.68477E-11-6.75719E-12-7.98552E-12 6.01361E-11 2.25407E-10-1.52967E-10
 -1       373-1.99781E-11-5.56280E-11-1.07015E-11-8.78807E-11-4.44947E-10-2.45395E-10
 -1       374-5.45492E-11 7.29526E-11-1.91671E-09-5.11190E-10-2.08364E-09-1.32690E-09
 -1       375 2.98572E-11 3.58905E-10-1.57303E-10 6.23166E-11-4.43315E-10 3.00518E-10
 -1       376 1.09429E-12 1.68089E-10-2.80968E-09 3.11953E-10 2.52292E-09-1.26811E-09
 -1       377-2.17171E-11 3.92444E-10-1.04112E-10-5.62744E-11 5.31352E-10 2.81049E-10
 -1       378 1.16079E-10-5.11884E-10-2.26486E-10 9.25702E-11 1.53115E-09-2.97788E-10
 -1       379-1.61416E-11 9.87406E-11-5.62190E-12 5.21367E-11-3.56624E-10-5.04505E-11
 -1       380 1.16388E-10-4.80264E-10-1.61935E-10-6.43847E-11-1.43977E-09-2.73366E-10
 -1       381-5.98390E-12 3.39095E-11 3.93549E-11-4.07795E-11 3.72229E-10-2.14107E-11
 -1       382-1.19201E-11-9.85443E-11-5.29995E-12 3.89029E-11 5.73289E-10-2.52641E-10
 -1       383-1.61097E-12-2.14744E-12-4.64182E-11-2.99843E-12-8.70020E-11-1.37255E-10
 -1       384-8.35481E-12 1.32322E-11 2.12504E-11 1.26440E-11-1.11391E-10-1.47836E-10
 -1       385-2.82732E-13 1.01240E-11-9.65112E-12-3.00734E-12 7.53899E-11-1.33123E-10
 -1       386-3.50130E-12-6.37594E-11-9.48963E-11 1.60515E-11 6.92172E-10-2.33094E-10
 -1       387-1.82325E-16 4.96965E-17-2.42046E-10 1.79142E-16-6.30239E-10-2.14014E-10
 -1       388-3.25978E-11-2.04691E-11 1.88499E-09 2.93185E-10-1.28447E-09 1.86700E-09
 -1       389 1.63371E-10 4.22717E-10-5.96336E-09-1.71509E-10-9.89423E-10-1.66506E-09
 -1       390 4.86434E-10 5.05416E-10-6.94670E-09-4.07053E-11 7.68979E-10-1.51586E-09
 -1       391-1.57589E-12-9.46495E-10 3.78321E-09 1.59965E-10 1.44201E-09 2.97222E-09
 -1       392-2.87947E-10-2.25331E-10 2.20323E-09 3.06075E-11-5.47903E-10 4.50219E-10
 -1       393-6.87617E-13 5.91543E-11-3.33267E-10 2.06952E-10 7.10508E-10-6.10289E-10
 -1       394-7.42472E-11 1.58980E-10-1.31996E-10-8.95295E-11 2.55135E-11-6.12492E-11
 -1       395-2.55732E-10 1.56896E-10-1.17674E-09 5.26884E-10 4.71433E-10-1.68155E-09
 -1       396-1.48144E-10 3.28822E-10 6.64569E-10-2.74049E-10 7.63932E-10 7.43063E-10
 -1       397-2.17534E-11 2.04689E-10 1.25944E-09 3.37510E-10-1.02739E-09 1.11089E-09
 -1       398-1.25314E-10 1.74071E-10-1.43821E-09-6.25361E-10-5.36395E-10-1.63739E-09
 -1       399-4.76955E-10 9.85479E-11 1.62087E-09-2.61449E-10 5.41249E-10 7.17255E-11
 -1       400 2.16481E-12-2.85351E-12 4.59091E-11-2.15165E-13-2.54338E-10-1.26720E-10
 -1       401-3.03943E-12-1.22959E-13 6.18513E-11-6.71948E-13-2.28447E-10-1.36071E-10
 -1       402 4.20944E-12-1.00218E-11-7.95149E-12-1.68937E-12-2.64483E-11-1.92808E-10
 -1       403-1.37858E-11 1.67475E-11 1.00185E-10-4.09304E-12-1.62802E-10-1.55945E-10
 -1       404-1.31443E-14-3.04946E-12 3.14723E-11 3.95575E-13-1.85702E-10-1.21662E-10
 -1       405-2.78653E-13 3.91306E-12 9.56455E-12-3.76556E-12-2.67324E-10-1.01589E-10
 -1       406-1.47106E-11 5.35979E-11 1.34674E-10-2.85448E-11-6.41210E-10 7.22558E-11
 -1       407 4.38643E-16-1.10833E-15 1.49170E-11-1.36198E-16-3.59779E-10-4.79874E-11
 -1       408-5.64836E-12-4.92634E-13 1.13866E-11 1.39667E-11-2.77619E-10-7.86376E-11
 -1       409 1.96753E-12-2.68675E-12 3.60567E-11 2.50541E-13 2.45039E-10-1.23374E-10
 -1       410-2.32312E-12 1.54571E-11 2.72401E-12 6.61646E-12 2.66238E-10-9.56509E-11
 -1       411-1.33566E-11 5.00284E-11 1.49132E-10 1.60235E-11 6.26272E-10 7.78235E-11
 -1       412 4.18275E-16-1.01785E-15 2.71697E-11 1.07195E-16 3.66674E-10-3.39202E-11
 -1       413-5.12656E-12 1.42417E-12 3.00655E-11-1.51143E-11 3.02952E-10-5.80582E-11
 -1       414-1.22892E-11 2.49697E-12 7.70764E-11-7.71082E-12 2.09745E-10-1.26692E-10
 -1       415 1.09757E-16-9.43242E-18 2.99316E-12 3.30475E-17 3.10450E-11-1.82931E-10
 -1       416 1.24034E-16-1.52046E-17 9.66071E-11 4.30480E-17 1.34885E-10-1.62692E-10
 -1       417 5.57185E-14 1.75466E-11 1.10507E-11 1.77400E-12 1.39387E-10-1.21939E-10
 -1       418-1.58983E-12 2.19804E-12-1.72936E-10-4.73544E-13 8.49168E-10-1.54201E-10
 -1       419 6.99754E-12-4.63516E-11-6.63678E-11-1.90569E-11 8.81189E-10-1.17916E-10
 -1       420 1.35108E-10-1.81688E-10-7.99809E-10-1.15393E-11 2.01578E-09-9.61352E-11
 -1       421-1.19757E-15 2.89695E-15-2.27571E-10-1.28337E-16 1.18250E-09-5.84637E-11
 -1       422 9.20363E-11-1.37854E-12-1.36490E-10 1.26296E-11 1.19368E-09-2.32133E-10
 -1       423 2.14484E-11-5.50534E-12-3.18095E-10 1.59089E-11 8.02085E-10-1.26831E-10
 -1       424-1.36270E-16-1.95405E-17-3.80490E-10-1.15720E-16 5.93066E-10-2.47830E-10
 -1       425-1.94846E-16-6.89118E-17-4.70566E-10-1.43458E-16 7.07616E-10-2.23936E-10
 -1       426 6.23943E-13-8.08494E-11-1.09765E-10 1.76866E-11 7.63741E-10-2.18379E-10
 -1       427 4.12706E-11-5.20469E-11-2.87359E-10-1.52910E-12-7.62818E-10-9.37576E-11
 -1       428 5.48325E-11-2.09584E-12-4.80539E-10-7.13487E-12-7.66072E-10-1.43865E-10
 -1       429-2.16698E-16-1.07937E-16-5.00089E-10 6.78297E-17-5.88182E-10-2.52194E-10
 -1       430-1.34402E-16-2.78194E-16-6.28128E-10 1.78525E-16-7.00785E-10-2.26799E-10
 -1       431-1.47953E-16 2.07329E-16-2.18251E-10 2.90454E-16-6.89537E-10-1.99972E-10
 -1       432 2.56319E-12-4.38352E-11-6.81057E-11 3.62052E-13-8.56258E-10-9.43265E-11
 -1       433 1.57229E-10-1.67713E-10-7.65081E-10 4.59500E-11-1.96533E-09-9.33299E-11
 -1       434-1.20337E-15 2.84535E-15-1.74481E-10 1.11283E-17-1.13314E-09-5.31208E-11
 -1       435 8.45118E-11 4.03968E-13-9.45987E-11-1.20925E-11-1.15350E-09-2.24080E-10
 -1       436-4.01208E-12-5.74303E-12-1.07454E-10 8.85706E-12 2.27040E-10-1.90819E-10
 -1       437 1.66220E-16-7.53685E-17-2.05286E-11-1.01685E-16 8.51636E-11-1.53134E-10
 -1       438-5.42540E-13 1.96060E-11-1.14228E-11 2.24363E-12 4.49253E-11-1.00442E-10
 -1       439 1.35101E-16-3.27318E-17-2.55278E-11-8.01778E-17-8.02903E-12-1.52521E-10
 -1       440-1.28728E-11 2.07009E-11-4.91984E-12 2.05744E-11-9.52639E-11-1.14867E-10
 -1       441 4.54031E-12-7.71461E-12-3.06024E-10 6.07269E-12 5.16861E-10-2.53286E-10
 -1       442 1.26245E-16 2.12406E-17-1.62876E-10-1.83405E-16 3.50277E-10-2.24483E-10
 -1       443-2.39247E-11-8.15130E-11 1.23397E-11 4.56360E-11 4.45375E-10-2.32332E-10
 -1       444-1.18520E-11-7.27288E-11-4.40422E-11 2.99843E-11 6.52571E-10-2.50870E-10
 -1       445 1.28264E-16-9.88081E-17-1.21238E-10 4.45239E-17-1.53466E-10-2.02766E-10
 -1       446-4.62214E-12 2.94794E-12-4.29425E-11-1.55370E-12-4.91893E-11-1.79511E-10
 -1       447 1.87263E-12-7.70591E-12-4.20844E-11-1.58808E-12-7.06821E-12-1.31461E-10
 -1       448 1.10415E-17 1.01896E-16-1.61257E-10 1.49079E-16-4.21075E-10-2.15528E-10
 -1       449-6.95090E-12 9.62127E-12-1.25421E-10-1.24110E-11-2.85308E-10-2.03195E-10
 -1       450 3.02527E-11-4.32593E-11-4.71531E-11-2.72418E-11-2.20013E-10-1.68411E-10
 -1       451-2.87191E-11-1.60453E-10-1.26693E-11-7.09005E-11-6.82006E-10-2.91783E-10
 -1       452-3.89397E-12 1.35449E-11-2.60145E-10-1.36326E-11-5.60992E-10-2.40901E-10
 -1       453-2.30249E-16 3.77587E-16-1.03697E-11 1.79759E-16-6.41009E-10-2.06088E-10
 -1       454 4.62290E-10 7.00066E-11-5.64750E-09-3.55360E-10-3.13472E-09-4.07539E-10
 -1       455 3.62812E-11-1.54265E-10-1.53216E-09 1.31797E-11-2.44669E-09-5.04338E-10
 -1       456-3.08604E-15 8.51937E-15-1.55911E-09 2.59591E-15-2.26940E-09-7.10499E-10
 -1       457 9.25764E-10-2.29267E-10-9.02936E-09-4.89880E-10-9.66783E-10-3.48932E-10
 -1       458 2.03895E-10 3.93840E-10-7.64559E-09 3.09460E-10-1.65826E-09-5.11760E-10
 -1       459-6.11744E-16-4.27174E-15-4.27358E-09 4.56998E-15-1.90544E-09-1.38950E-09
 -1       460 3.44397E-10 2.34938E-10-8.05885E-09-3.22001E-10 1.77219E-09-3.27578E-10
 -1       461 4.06983E-10 1.73828E-10-9.19273E-09 3.95422E-10 3.86927E-10-8.03698E-11
 -1       462-4.00708E-15-6.48546E-15-6.58494E-09-4.92041E-16-2.33588E-10-1.87002E-09
 -1       463 7.88343E-11-1.62856E-10-1.89230E-09-2.33104E-11 2.61408E-09-4.06992E-10
 -1       464 5.93335E-10 7.71085E-11-6.05156E-09 4.06144E-10 3.17836E-09-2.81446E-10
 -1       465-2.44858E-15-4.56063E-15-5.08196E-09-4.76679E-15 1.94696E-09-1.45964E-09
 -1       466-3.30365E-15 9.26295E-15-1.96292E-09-2.86237E-15 2.42763E-09-6.97947E-10
 -1       467-1.62560E-10-1.11596E-11 1.21912E-09-1.07339E-10 1.48781E-09 9.52549E-10
 -1       468-1.69494E-11 2.11313E-10 1.60169E-10-4.49937E-11 8.12883E-10 2.52796E-10
 -1       469-3.49971E-11 5.31567E-11 2.95533E-11-5.98934E-11 3.97053E-10 9.99039E-11
 -1       470 3.06746E-11-8.62978E-10 6.83184E-09-2.32209E-10 1.61030E-10 3.58708E-09
 -1       471 1.44158E-10 2.16140E-10 2.90043E-09-1.77825E-10 2.06775E-09 2.19661E-09
 -1       472 2.35785E-15-3.23789E-15 1.62142E-09-4.64919E-15 1.36200E-09 1.53237E-09
 -1       473 1.84011E-10 3.19710E-10 2.31586E-09 2.70858E-10-1.93151E-09 1.72707E-09
 -1       474-1.21996E-10 1.28150E-11 4.21108E-09 7.14988E-11-8.34849E-10 2.57180E-09
 -1       475 4.67397E-15 7.30224E-15 3.78830E-09 4.85143E-15-6.28172E-10 2.61944E-09
 -1       476-9.55221E-12 2.10763E-10 9.44080E-11 3.14506E-11-7.63379E-10 2.54360E-10
 -1       477-1.44720E-10 3.24423E-11 1.16437E-09 9.25714E-11-1.41862E-09 9.42335E-10
 -1       478-2.91594E-11-8.60715E-11 8.70978E-10 3.77124E-10-1.01985E-09 9.65975E-10
 -1       479-3.66414E-11 7.76786E-11-1.60947E-11 4.73919E-11-3.53409E-10 7.92710E-11
 -1       480 3.36236E-13-2.71665E-11-7.82168E-11 1.02705E-11-1.40440E-11 3.16301E-11
 -1       481 2.10375E-15-1.25998E-15-7.66204E-11-5.94643E-16 1.27448E-10-9.80216E-11
 -1       482-8.69107E-11 3.29613E-10-3.76891E-11-5.60534E-11-3.34055E-10 2.60270E-10
 -1       483-1.09630E-10 2.99600E-10-1.96809E-10-2.02692E-11 4.97898E-10-4.36249E-10
 -1       484-1.96379E-10 2.53428E-11-2.18317E-10 1.03051E-10 2.96644E-10-4.87217E-10
 -1       485 3.18067E-15-3.38982E-15 3.93130E-10 2.85171E-15-7.26183E-10 8.58522E-10
 -1       486-2.23887E-10 1.25817E-10 7.13082E-10 8.31431E-11-7.62035E-10 5.66604E-10
 -1       487-2.94557E-10 2.16372E-10 1.26476E-10 1.03412E-10-1.95412E-10-6.96854E-10
 -1       488-4.80230E-10 5.93146E-11 7.56731E-10 1.54108E-10-4.70913E-10-2.08037E-10
 -1       489 6.75725E-15-2.52768E-15-4.22646E-10-8.48787E-16 9.50699E-11-8.30622E-10
 -1       490 5.95956E-15-1.94620E-15 1.91457E-09 3.04898E-15-9.29217E-10 1.04904E-09
 -1       491 1.02562E-10 4.42614E-11-5.96238E-10 2.41706E-10 6.86966E-10-9.16896E-10
 -1       492 2.08713E-15 1.69236E-15-6.71715E-10 3.83383E-15-1.05028E-09-7.36535E-10
 -1       493-1.61706E-10-2.85272E-11-1.83276E-10-9.38630E-11-4.49210E-10-4.48991E-10
 -1       494-8.08995E-11 2.65615E-10-1.03741E-09-6.43310E-11-9.56102E-10-1.05091E-09
 -1       495 1.57812E-15-3.48245E-16-1.14010E-10 8.12907E-16-2.31460E-10-1.85326E-10
 -1       496 3.00023E-11 1.96189E-10-1.28213E-10-1.00907E-10-2.88576E-12-1.73094E-10
 -1       497 2.47754E-10-4.31168E-10-1.61597E-09-2.37925E-10-1.24566E-09-1.27941E-09
 -1       498 7.28321E-15-3.00669E-15-6.85611E-10 1.40279E-15-3.55942E-10-8.50063E-10
 -1       499-1.48100E-10 1.41315E-11 2.21561E-10 6.24398E-11 4.44896E-10 3.61712E-10
 -1       500 3.79189E-15-2.46763E-15 4.16965E-10-1.26281E-15 5.09492E-10 2.80795E-10
 -1       501 5.34011E-15-2.18671E-15 1.40727E-09-2.64979E-15 7.26248E-10 8.35114E-10
 -1       502-3.59815E-10-4.57115E-11 6.31903E-10-1.72627E-10 1.36124E-10-9.02425E-11
 -1       503-3.41903E-10 4.21930E-10-1.52060E-10-2.11027E-10 1.25285E-10-9.16551E-10
 -1       504 8.65543E-12-5.89261E-10-1.58622E-11 8.12515E-11 1.42640E-09-3.37501E-10
 -1       505 9.32832E-12-2.56011E-10 1.09617E-11 1.14874E-10 9.62363E-10-2.19738E-10
 -1       506-1.71557E-16 1.56801E-15-4.52916E-11-9.13388E-16 7.79606E-10-2.55737E-10
 -1       507 2.58462E-11 1.62326E-10-1.52346E-09 3.10014E-10 1.97811E-09-9.83324E-10
 -1       508 1.39138E-11-5.03840E-10-1.08774E-09-5.06193E-11 1.53413E-09-9.83403E-10
 -1       509 1.16275E-15 2.42871E-15-3.77469E-10-4.11714E-15 1.10612E-09-6.33679E-10
 -1       510 6.30896E-11-2.04533E-10-3.42640E-11 7.73537E-12 8.06798E-10-2.91621E-10
 -1       511 1.00551E-15 1.74194E-15-2.29497E-10-3.07924E-15 8.01607E-10-5.17041E-10
 -1       512 1.77452E-16-6.80310E-16-1.03161E-11 2.92681E-16 2.24813E-10-2.21927E-11
 -1       513-2.20242E-11 3.99432E-11-9.63568E-12-6.93892E-12 1.75190E-10-7.60812E-11
 -1       514 3.82978E-12 2.36492E-12-2.71065E-11-1.14814E-11 8.22644E-11-9.94373E-11
 -1       515 2.24252E-11 5.71656E-12-4.75622E-11 1.37678E-11 2.23816E-10 8.26146E-11
 -1       516 1.41819E-11 2.30472E-10-1.16217E-10 5.81180E-11 2.77799E-10 1.60384E-10
 -1       517-4.48298E-11 7.67129E-11-5.94147E-11-8.39918E-12 6.24402E-11-1.02078E-11
 -1       518 3.91819E-16-1.85960E-16-5.00406E-11 3.14347E-16-8.25268E-12-1.02335E-10
 -1       519 3.35318E-12-6.98530E-13-7.19431E-11 8.86697E-12-7.21133E-11-1.16604E-10
 -1       520 1.93043E-16-5.01097E-16 1.55360E-12-4.46000E-16-1.73916E-10-9.52396E-11
 -1       521 1.72678E-16-6.38951E-16-1.58944E-11-3.39846E-16-2.07537E-10-5.52896E-11
 -1       522 1.65158E-11-3.79335E-13-6.35796E-11 1.56690E-11-1.52237E-10 4.09883E-11
 -1       523-5.45747E-12-2.42693E-10 2.75809E-11-8.53294E-11-8.67844E-10-2.09288E-10
 -1       524 4.01058E-11-5.36189E-10 7.22477E-11 2.89731E-12-1.24413E-09-2.83281E-10
 -1       525-1.67344E-11 8.31899E-12-1.05019E-09-3.51474E-10-1.72730E-09-8.88042E-10
 -1       526 8.23994E-16-5.57261E-15-3.41362E-09-5.24043E-16-4.23989E-10-1.95899E-09
 -1       527 1.65640E-10 1.19207E-10-4.02885E-09-1.69319E-10 2.19824E-10-1.79955E-09
 -1       528 1.44963E-10 3.10968E-10-3.88176E-09-3.59855E-10-8.71710E-10-1.79628E-09
 -1       529-1.05712E-10-5.50444E-12-1.15105E-09-1.09495E-10-1.41249E-10-1.78193E-09
 -1       530 3.49840E-10 2.67193E-10-4.27146E-09 3.69666E-10 8.66966E-10-1.97098E-09
 -1       531-2.76981E-10 6.01959E-12-8.08037E-10 1.15173E-10 1.31943E-10-1.67370E-09
 -1       532 4.58715E-11-2.59632E-10 1.02806E-09-3.32172E-11-1.20161E-10-3.52798E-10
 -1       533 1.27132E-14 3.15459E-15 2.17036E-09-1.07787E-15 2.65910E-10 2.22104E-10
 -1       534 1.37558E-14 1.47345E-15 4.60268E-10-6.80587E-16 2.77751E-10-7.92495E-10
 -1       535 5.47536E-15 5.42627E-15 3.25786E-09 5.47613E-15-9.97730E-10 1.93516E-09
 -1       536-1.98189E-10-8.59827E-10 4.62158E-09 4.23229E-10 5.96159E-10 2.60999E-09
 -1       537-1.08199E-10 2.20834E-10 1.65363E-09 2.37529E-10-1.28458E-09 1.50021E-09
 -1       538 8.65322E-10-1.11153E-11 3.05255E-09-1.64179E-10-1.04116E-09 1.90544E-09
 -1       539-4.75023E-10-1.32295E-10 1.96408E-09-4.24467E-10 1.04596E-09 1.47116E-09
 -1       540 6.87304E-10 2.71914E-12 2.75503E-09 7.00737E-11 9.88200E-10 1.85985E-09
 -1       541-2.19752E-10-7.00028E-10 3.57801E-09 3.93347E-10-3.71778E-10 1.32169E-09
 -1       542-3.97937E-10-2.50739E-10 3.16304E-09-4.08293E-10 5.63310E-10 1.10656E-09
 -1       543 2.00735E-15-4.04910E-15-2.01996E-09-5.49288E-15 1.59452E-09-1.35826E-09
 -1       544-2.61008E-12 3.15287E-10 2.68621E-10-1.33226E-10 7.62875E-10 6.35304E-10
 -1       545-9.92148E-11 3.43209E-10-1.07267E-10-4.64849E-11 2.21887E-10-3.29095E-11
 -1       546-1.13254E-10 3.55747E-10-1.04066E-10 2.95527E-11-2.31065E-10-1.70644E-11
 -1       547-6.15814E-11 1.80100E-10-6.44889E-11 1.39257E-11-2.67383E-10-4.85220E-11
 -1       548-4.51079E-11 1.83993E-10-5.22462E-11 1.52713E-11-1.17574E-10-6.77428E-12
 -1       549-2.11445E-10 5.59423E-10-1.38286E-10 6.26408E-11-1.31114E-10-1.18282E-11
 -1       550-1.28905E-10 3.03576E-10 3.47819E-11-1.41510E-13-5.36627E-10 3.51221E-11
 -1       551-6.35813E-11 1.84078E-10-6.20771E-11-1.09645E-11 2.67859E-10-5.05793E-11
 -1       552-4.91503E-11 1.81171E-10-5.35460E-11-2.31914E-11 1.04224E-10-7.02894E-12
 -1       553-1.59222E-10 5.20609E-10-1.41092E-10-8.80004E-11 1.34694E-10-2.77845E-11
 -1       554-1.18850E-10 2.87658E-10 4.40487E-11 1.24005E-12 5.27021E-10 3.26716E-11
 -1       555-1.34007E-09-2.88913E-09 8.58856E-09 7.40486E-10 1.40067E-09 2.65639E-09
 -1       556-1.83456E-09-2.32205E-09 8.76707E-09-8.90855E-10-1.53930E-09 2.91884E-09
 -1       557-1.50344E-09-5.19647E-10 4.36963E-09-1.20317E-09-3.51119E-09 1.04620E-09
 -1       558-4.36482E-10 8.54346E-10 1.15548E-09 1.32612E-10-1.30397E-09 4.89114E-10
 -1       559-1.45478E-09-5.46264E-10 4.10469E-09 1.09694E-09 3.65597E-09 9.07412E-10
 -1       560-5.01765E-10 1.00097E-09 1.08264E-09-1.30936E-10 1.32759E-09 4.77742E-10
 -1       561-5.32592E-10 1.06182E-09-1.82923E-11 1.11633E-10 7.73803E-10-1.60889E-10
 -1       562-9.85928E-11 5.73352E-10-1.23350E-11-1.58531E-10 4.23118E-10 3.01686E-11
 -1       563-4.63905E-10 9.58750E-10 2.75181E-11-1.83803E-10-7.90123E-10-8.92495E-11
 -1       564-1.23089E-10 5.96569E-10-7.31416E-12 1.23793E-10-4.38214E-10 3.55129E-11
 -1       565 6.85681E-09 4.39775E-09-1.92797E-08-4.12032E-10 3.16031E-09-1.96564E-09
 -1       566 8.46595E-09 5.81269E-09-2.40970E-08 2.19669E-11-5.48025E-09-3.41150E-09
 -1       567 1.03915E-08 8.30006E-09-3.15936E-08-9.08074E-10 8.22608E-09-5.09818E-09
 -1       568 3.14344E-10-1.10576E-09 4.04984E-10 5.17367E-11 6.00473E-10-6.08906E-11
 -1       569 3.00246E-10-1.09823E-09 4.09571E-10-6.16737E-11-6.15811E-10-5.52190E-11
 -1       570 8.17247E-09 1.22494E-08-3.50418E-08 8.08930E-10 1.39992E-09-7.50544E-09
 -1       571 1.97209E-10-5.47814E-10 1.40668E-10-1.36174E-11 7.64311E-10-6.88983E-11
 -1       572 1.01666E-10-4.97415E-10 2.38805E-10 1.91919E-11 2.09154E-10 1.77916E-11
 -1       573 2.78147E-11-8.55083E-10 3.69102E-10 5.75255E-11 1.48345E-10-5.23957E-11
 -1       574 5.18072E-10-9.63422E-10-3.63790E-10 1.00873E-10 1.64179E-09-4.31660E-12
 -1       575 2.00692E-10-5.23367E-10 1.72811E-10 1.11677E-11-7.86117E-10-6.85086E-11
 -1       576 1.25478E-10-5.06695E-10 2.29883E-10-4.95368E-11-2.15323E-10 1.66793E-11
 -1       577 2.12630E-11-8.52174E-10 3.72673E-10-7.48062E-11-1.62915E-10-4.61639E-11
 -1       578 5.21663E-10-9.64335E-10-3.61518E-10-6.56031E-11-1.64033E-09-7.50717E-12
 -1       579 1.31828E-08 1.22961E-08-4.15756E-08-2.35082E-10 7.84361E-09-5.71604E-09
 -1       580 8.90976E-09 4.31680E-09-2.69845E-08-1.24866E-10 1.16308E-08-2.50390E-09
 -1       581 2.74324E-09-2.57716E-09-4.08226E-09 6.29793E-10 5.27720E-09-9.96045E-10
 -1       582 4.72920E-09 1.72510E-10-1.12467E-08 7.58572E-10 4.46463E-09 5.67099E-12
 -1       583 4.80766E-09 2.24700E-09-1.40931E-08-2.51226E-10 2.64884E-09-6.23414E-10
 -1       584 7.25492E-09 6.39207E-10-1.94675E-08 1.42293E-10 7.54205E-09-2.22210E-09
 -1       585 6.57490E-10-1.10867E-09-1.34396E-10 2.58317E-12 5.23986E-10 2.87440E-10
 -1       586 7.52052E-09 5.98113E-09-2.51880E-08-9.29758E-10 6.11549E-09-3.34074E-09
 -1       587 1.17316E-08 1.15732E-08-4.35603E-08-3.87673E-10 6.72844E-09-8.82837E-09
 -1       588 7.49505E-09 1.40101E-09-2.20924E-08 4.74898E-10-9.54196E-09-2.91730E-09
 -1       589 1.12225E-08 1.00016E-08-3.60685E-08 5.95317E-10-7.64362E-09-2.94642E-09
 -1       590 8.60006E-09 1.20209E-08-3.93773E-08 3.09202E-11-6.04633E-09-1.00003E-08
 -1       591 4.55129E-09 8.33699E-11-1.11755E-08-1.06968E-09-4.52863E-09-1.13895E-10
 -1       592 2.64745E-09-2.67255E-09-3.95844E-09-5.71146E-10-5.26104E-09-9.39599E-10
 -1       593 6.88695E-10-1.11214E-09-1.52844E-10 5.32554E-11-5.52358E-10 2.66540E-10
 -1       594 5.20752E-09 2.32615E-09-1.46058E-08 4.71606E-10-3.12522E-09-9.19362E-10
 -1       595 5.56702E-09 2.91389E-09-1.62056E-08-4.16584E-10-1.81450E-09-4.97222E-10
 -1       596 4.74315E-09 2.86010E-09-1.54704E-08 1.97693E-10 1.38457E-09-1.60843E-10
 -1       597 6.99552E-09 6.63416E-09-2.24409E-08-5.36616E-10-2.98074E-10-3.46419E-09
 -1       598 8.02191E-09 1.41230E-08-4.36819E-08-9.73093E-11 2.94103E-09-1.13066E-08
 -1       599 6.55523E-09 1.39280E-08-4.52704E-08 8.23530E-10-1.37563E-09-1.43846E-08
 -1       600 8.51167E-09 9.67704E-09-3.17858E-08 1.19528E-09-2.35379E-09-6.24888E-09
 -1       601 8.80503E-09 1.07348E-08-3.32948E-08-2.50679E-10 5.36853E-09-6.95343E-09
 -1       602 6.85665E-09 8.43167E-09-2.76874E-08 3.12628E-10 2.48903E-09-4.30647E-09
 -1       603-3.97330E-11 8.14318E-11-5.60512E-11 8.05227E-11 7.94122E-11 9.09522E-12
 -1       604 8.66508E-11-1.57937E-10 8.87102E-11 2.31666E-10-2.97252E-10-6.28105E-12
 -1       605-4.63598E-10 7.61037E-13 1.62324E-10 1.34828E-10 1.35660E-10 8.76648E-11
 -1       606-3.21651E-11 7.55812E-11-3.04640E-11 7.27959E-11 1.60123E-11-9.73879E-12
 -1       607 3.77670E-11-7.01442E-11 4.93930E-11 1.04255E-10-1.65067E-10-4.20811E-11
 -1       608-6.15416E-10 1.97709E-10-9.19738E-11-8.53626E-10 3.83187E-10 1.23691E-10
 -1       609-6.42880E-11-2.21158E-11 5.77631E-11 2.64776E-10-7.38731E-11 4.45971E-11
 -1       610 4.32585E-11-1.18056E-10 7.13901E-11 1.69604E-10-1.22370E-10 2.55671E-11
 -1       611-1.03605E-11-1.22923E-12 8.08577E-12 8.54901E-11 7.77100E-12-1.78065E-11
 -1       612-1.96410E-11 9.92190E-11-5.17513E-11 8.88831E-11 4.01107E-11 2.08445E-12
 -1       613-7.46620E-11 3.78829E-12 2.85230E-11 1.28465E-10 3.16362E-11 1.82231E-11
 -1       614 7.08198E-11-2.89337E-10 2.07883E-10 1.99284E-10-2.28093E-10 4.39669E-11
 -1       615-1.19737E-09 5.89031E-10 2.30833E-11-1.42115E-09-2.40603E-10 8.33483E-10
 -1       616-1.72896E-09 3.88000E-10 4.47550E-10-3.01668E-10 1.87177E-10 5.35216E-10
 -1       617 5.95219E-10-1.29308E-09 7.17553E-10 6.22570E-10-1.81869E-10 1.48714E-10
 -1       618-3.01532E-10-5.16644E-10 5.40971E-10 7.78378E-10-9.51093E-11 9.04784E-11
 -1       619-1.08053E-09 2.98882E-10 6.34041E-11-2.14168E-09 3.29223E-10 9.99786E-10
 -1       620-1.92710E-10 5.28295E-11 1.13678E-11-4.98859E-12 1.35486E-10 3.69778E-11
 -1       621-2.07085E-11 4.85198E-11-2.79557E-11 3.65381E-11 1.89631E-11-9.98763E-12
 -1       622-1.47761E-11 2.94013E-11-4.63240E-11 4.41319E-11 2.18870E-11-1.77549E-11
 -1       623 1.36396E-11 5.16970E-12-1.66983E-11 5.11147E-11 4.21341E-12-1.43150E-11
 -1       624-2.42228E-11-1.79549E-12 1.29644E-11 6.95801E-11-3.43773E-13-1.13870E-11
 -1       625-1.07506E-11 1.91020E-11-6.88904E-12 8.10763E-11-4.52164E-13-8.45124E-12
 -1       626-2.59170E-11 6.05550E-11-1.33665E-11 4.47527E-11 3.62246E-12-1.38128E-11
 -1       627-1.13931E-10 3.16274E-10-9.60105E-11 4.41989E-11-3.41426E-12 2.30530E-11
 -1       628-1.21351E-12 6.61473E-11-3.48023E-11 5.25232E-11 2.21583E-11-1.36904E-11
 -1       629-1.99763E-11 6.71588E-11-3.18040E-11 8.52351E-11 3.16976E-11-1.07414E-11
 -1       630-3.85772E-12-7.78152E-11 2.02788E-10 3.26353E-11-1.11734E-10-2.06230E-11
 -1       631-3.54254E-11-3.67237E-11 6.97363E-11 7.77088E-11-1.59796E-10-3.27535E-11
 -1       632-1.14013E-11-1.42164E-11 7.07489E-11 1.21415E-10-1.55144E-10 1.11908E-11
 -1       633-6.72879E-11 7.89616E-11-5.27313E-11 4.27318E-11-2.16822E-10-5.39613E-11
 -1       634 1.08378E-11 3.48591E-11 8.71390E-11 2.14521E-10-1.66553E-10 2.48429E-11
 -1       635-9.68382E-12-4.36744E-11 1.49164E-10 5.05351E-11-1.01510E-10-5.31909E-11
 -1       636 2.33164E-11 5.75207E-11-1.95059E-11 8.54469E-11-7.16674E-11-4.02040E-13
 -1       637-9.66071E-12 4.54683E-11 1.87908E-11 3.88966E-11-7.84027E-11-1.53030E-11
 -1       638-3.11811E-11 2.13864E-13 2.64554E-11 1.11787E-10-1.25727E-10-2.98573E-11
 -1       639-2.17141E-09-1.44832E-10 2.37350E-09-3.46265E-09-2.40141E-09 1.05593E-09
 -1       640-5.20103E-10 3.76102E-10-1.08742E-10-1.23008E-09 2.28025E-11 3.87815E-10
 -1       641-1.29161E-09 4.89091E-10 2.06164E-09-4.02444E-09-2.03667E-09 2.68548E-09
 -1       642 2.86568E-09-3.70168E-09-2.27179E-09 1.27582E-09 4.73447E-09-9.49654E-10
 -1       643-4.04326E-10-1.38877E-09 5.14817E-11 2.29234E-09 1.71916E-09-1.46065E-09
 -1       644 1.89559E-10-3.75268E-10 4.68361E-10 4.02187E-11-7.66100E-10 4.56257E-11
 -1       645-2.91712E-09 5.82332E-10 1.04234E-10 3.37302E-10 5.58293E-10-1.47231E-09
 -1       646-2.40487E-09 4.65188E-10-7.16318E-12-1.17991E-09 2.48146E-10-1.15107E-09
 -1       647-2.69262E-09 4.90239E-10 1.97213E-09-1.45880E-09-1.14730E-09 1.42083E-09
 -1       648-1.01286E-09-1.08985E-10-4.88825E-11 1.98695E-09 1.22281E-09-9.76634E-10
 -1       649-5.90752E-10-1.77861E-10 4.05427E-10 1.23110E-10 8.09631E-11 3.15305E-10
 -1       650 1.62047E-10-1.29436E-09 1.05789E-09 5.04279E-10-2.86092E-10 9.69560E-11
 -1       651-5.03782E-11 9.91352E-12 1.73807E-11 9.12999E-11 5.71510E-12 1.17015E-11
 -1       652-5.59701E-11 6.71134E-12 2.23710E-11 8.36951E-11-5.18261E-12 1.59885E-11
 -1       653-4.16598E-11 5.00990E-13 1.35573E-11 9.56454E-11 3.21230E-11-3.31924E-12
 -1       654-5.89927E-11 5.69821E-11 9.49356E-12 1.17894E-10-1.19798E-11 2.04971E-11
 -1       655 6.82097E-12 4.42486E-11-1.21241E-11 1.53390E-10-3.03831E-11 2.02964E-11
 -1       656-8.05167E-11-2.19610E-11 4.85701E-11 1.51804E-10 1.23769E-11 2.56366E-11
 -1       657 1.04324E-11-1.37628E-10 7.23101E-11 2.51318E-10-1.11531E-10 5.21666E-11
 -1       658-4.74377E-10-7.23631E-11 2.07132E-10-7.02343E-10 3.30582E-12 8.26301E-11
 -1       659-3.34548E-10-2.34012E-11 2.61320E-11-2.10767E-10 2.85290E-10 1.99646E-11
 -1       660-8.58011E-10 2.21151E-10-7.11276E-11-1.67426E-09 2.55320E-10 5.40072E-10
 -1       661-1.66016E-10-1.99124E-10 4.28459E-11-1.38649E-10 3.57735E-10 1.15104E-11
 -1       662-6.31491E-11 1.74014E-10-1.00866E-10 1.87769E-11 8.16848E-11-2.24256E-12
 -1       663-1.66528E-11 4.00228E-11-6.37100E-11 7.27577E-11 8.93468E-11 1.50212E-12
 -1       664 2.56672E-10-1.13990E-10 4.19568E-11 2.10025E-10-1.24382E-10 4.45094E-11
 -1       665-1.26865E-09 5.11943E-10 1.94061E-09-2.27517E-09-1.51660E-09 2.11877E-09
 -1       666-2.10226E-09 1.44924E-10 2.48733E-09-2.77779E-09-1.92250E-09 2.66126E-09
 -1       667-1.02703E-09 4.01988E-10 1.54181E-10-1.90733E-09 1.81200E-10 8.48408E-10
 -1       668-1.18845E-09 1.66377E-10 3.02861E-10-1.05050E-09 1.63130E-10 5.68514E-10
 -1       669-1.33381E-11 1.64093E-11-1.59340E-11 7.83741E-11 2.38438E-11 1.24791E-11
 -1       670-4.13211E-11 1.05775E-10-4.93143E-11 1.05747E-10 3.05630E-11-7.79677E-13
 -1       671-2.47362E-10-2.72559E-10 7.60710E-11-2.26732E-10 4.03639E-10 5.98777E-11
 -1       672-1.10506E-10 4.90482E-11-1.40508E-11 7.80332E-12 1.15780E-10 7.94035E-12
 -1       673-6.38002E-11 7.10040E-12-1.82980E-12 8.87800E-11 4.93636E-11 2.83870E-11
 -1       674-1.21855E-10 6.97475E-12 2.17178E-11 8.50956E-11 6.25211E-11 4.37040E-11
 -1       675 2.56958E-12 6.49307E-11 7.32794E-11 1.91470E-10-1.57188E-10-1.63932E-11
 -1       676 6.23305E-11 2.06242E-11 8.17634E-11 1.41893E-10-2.37558E-10-4.02895E-12
 -1       677 1.27939E-10-3.66486E-10 2.21791E-10 2.00007E-10-2.87181E-10 2.43037E-11
 -1       678-1.29717E-11-1.77414E-11 5.43088E-11 2.31817E-10-2.42736E-10 4.75690E-11
 -1       679-1.73224E-10-5.79965E-11 1.75389E-10 4.64519E-10-1.05791E-10 1.79319E-11
 -1       680-1.99871E-11-4.84339E-11 1.56078E-10 2.04382E-10-3.31020E-10 9.42876E-11
 -1       681 3.17235E-10-9.68312E-12 1.61984E-11 3.34959E-10-1.64689E-10-4.01987E-11
 -1       682-3.87721E-10-2.79809E-10 1.21542E-10-2.25803E-10 3.86345E-10 1.52230E-10
 -1       683-8.03569E-10 3.60352E-10 4.25658E-11-1.06792E-09 2.90329E-10 4.90905E-10
 -1       684-6.73566E-10-1.03117E-10 3.04644E-10-6.09894E-10 2.86220E-10 5.19758E-10
 -1       685-3.10968E-10 6.22073E-11 6.09959E-11 1.50697E-11 1.44656E-10 4.54238E-11
 -1       686-1.60916E-10-4.21577E-11 8.48777E-11 1.57219E-10 4.21400E-11 4.30205E-11
 -1       687-2.03415E-10-8.25395E-12 9.40285E-11 1.00743E-10 3.71375E-11 7.23799E-11
 -1       688-3.19010E-10-4.79981E-10 3.13625E-10 4.49294E-10 3.24769E-11 1.96531E-10
 -1       689-7.69161E-10 7.14466E-11 2.65102E-10 7.51100E-11 1.57355E-10 1.65726E-10
 -1       690-3.75988E-11 8.48649E-11-7.22393E-11-6.82992E-11-9.04052E-11-9.90154E-12
 -1       691 6.99476E-11-1.29677E-10 5.07637E-11-2.15047E-10 2.50084E-10-1.42662E-11
 -1       692-4.34643E-10-2.07170E-11 2.14562E-10-1.19871E-10-1.00166E-10 1.43229E-10
 -1       693-2.54958E-11 5.16515E-11-1.72702E-11-6.59036E-11-1.04553E-11-4.81586E-12
 -1       694-3.33134E-11 7.48973E-11-1.60264E-11-1.27398E-10 1.33738E-10-2.57798E-11
 -1       695-3.57702E-10-1.08605E-10 1.21254E-10 6.37449E-10-3.03882E-10 3.28554E-10
 -1       696-3.86160E-11-7.00762E-11 6.62417E-11-2.69034E-10 4.63627E-11 5.75076E-11
 -1       697 4.02233E-11 6.64690E-12-4.90421E-14-1.15731E-10 1.69355E-10 2.48881E-11
 -1       698-2.38529E-11 1.14987E-11 2.17191E-12-9.52657E-11-2.36260E-11-2.31943E-11
 -1       699-3.52918E-11 1.17038E-10-4.62409E-11-7.77719E-11 5.29223E-12 1.40867E-11
 -1       700-1.00706E-10 1.24284E-11 4.19954E-11-1.25759E-10-4.26319E-11 1.47557E-11
 -1       701 5.64451E-11-2.65058E-10 1.81099E-10-1.93687E-10 2.04851E-10 3.87836E-11
 -1       702-1.30176E-09 6.87448E-10 1.13785E-10 1.19930E-09 2.81603E-10 6.75467E-10
 -1       703-1.94969E-09 5.36784E-10 6.34596E-10 2.84025E-11-9.22898E-13 2.02883E-10
 -1       704 5.44767E-10-1.12502E-09 6.00084E-10-6.32664E-10 2.61556E-10 1.33262E-10
 -1       705-2.46468E-10-6.33414E-10 6.05756E-10-7.60507E-10-3.00453E-11 1.51937E-10
 -1       706-1.06571E-09 5.34896E-10-8.98260E-11 2.24988E-09-9.01743E-11 8.64146E-10
 -1       707-1.83738E-10-1.03615E-11 3.96629E-11-2.79364E-11-1.91959E-10 5.13093E-12
 -1       708-1.57601E-11 3.99363E-11-2.32172E-11-2.74344E-11-1.82189E-11-2.93679E-12
 -1       709-1.79714E-11 4.82823E-11-3.11121E-12-4.10522E-11-4.46085E-12-4.22698E-12
 -1       710-6.54683E-12 7.37151E-11-2.50113E-11-3.14791E-11-8.59997E-12-6.01627E-12
 -1       711-1.05244E-10 2.98180E-10-7.92476E-11-4.24275E-11 2.05171E-11 8.69807E-12
 -1       712-3.03245E-11 7.62363E-11-2.15965E-11-8.67606E-11 8.61009E-12 8.61491E-12
 -1       713-1.93555E-11 3.08587E-11-4.34508E-11-3.43538E-11-1.52457E-11-1.72113E-11
 -1       714-2.54451E-11-8.92861E-12 1.79281E-11-6.84357E-11-5.44978E-12-8.87339E-12
 -1       715 4.02120E-12 4.17757E-12-1.36273E-11-5.34619E-11-1.26219E-11-1.51995E-11
 -1       716-2.14229E-11 3.15152E-11-8.72291E-12-8.02855E-11-1.22755E-11-1.88592E-11
 -1       717-2.92865E-11 2.30815E-11 1.53563E-11-7.27316E-11 1.03238E-10-1.78227E-11
 -1       718 1.20274E-11 3.33014E-11 1.56370E-11-6.86274E-11 1.08964E-10-4.25391E-11
 -1       719-1.93648E-11 8.47170E-11 5.38616E-12-5.98201E-11 1.03276E-10-9.01695E-12
 -1       720 3.13797E-11 6.60856E-11-2.33656E-11-7.09455E-11 8.08204E-11 1.14765E-11
 -1       721-3.23253E-11 3.47559E-11-2.15554E-12-1.08744E-10 1.28515E-10-3.08086E-11
 -1       722-5.03783E-11 4.05531E-11 1.04139E-11-9.09012E-11 1.47457E-10-2.48921E-12
 -1       723-5.75810E-11 8.44469E-11-6.50795E-11-2.92588E-11 2.11322E-10-5.39197E-11
 -1       724-5.46806E-12-1.54099E-11 7.17959E-11-1.12302E-10 1.74601E-10 2.59815E-11
 -1       725-5.59572E-12 3.22638E-11 6.57625E-11-2.02904E-10 1.57205E-10 1.89970E-11
 -1       726-6.29339E-10 4.99059E-10-1.38870E-10 1.20996E-09-2.53281E-11 2.82332E-10
 -1       727-1.92813E-09-1.02268E-10 2.32145E-09 3.22885E-09 2.23556E-09 8.76836E-10
 -1       728-1.16997E-09 5.89150E-10 1.98373E-09 4.01652E-09 2.19761E-09 2.84304E-09
 -1       729-4.66980E-10-1.14775E-09 2.80558E-10-2.19235E-09-1.68582E-09-1.52284E-09
 -1       730 2.80248E-09-3.69151E-09-2.23153E-09-1.32069E-09-4.69365E-09-9.58872E-10
 -1       731 2.29497E-10-3.93918E-10 4.45903E-10-6.35201E-11 7.62708E-10 1.73936E-11
 -1       732-2.59469E-09 4.17145E-10 4.74525E-11 1.06668E-09-2.28127E-10-1.20326E-09
 -1       733-3.02235E-09 1.26999E-09-6.47980E-10-5.53613E-10-5.53140E-10-1.91461E-09
 -1       734-9.93773E-10-2.22972E-10 8.43637E-10-6.69442E-10-9.85035E-11 2.22651E-10
 -1       735-1.02862E-09-3.73970E-10-4.71542E-10-1.48955E-09-1.02672E-09-1.06051E-09
 -1       736 2.12962E-10-1.14201E-09 9.00176E-10-3.27204E-10 3.13725E-10 1.54345E-10
 -1       737-2.31063E-09 7.92981E-11 2.42005E-09 1.68464E-09 1.41411E-09 1.69819E-09
 -1       738-6.18101E-11 1.47605E-11 2.45753E-11-9.25461E-11 4.04594E-12 1.20165E-11
 -1       739-5.06550E-11 1.23983E-11 1.34494E-11-9.53756E-11-7.74287E-12 9.29920E-12
 -1       740-5.06105E-11 5.82211E-12 1.16208E-11-9.22726E-11-4.64411E-11-4.39923E-12
 -1       741 8.96307E-12 5.24094E-13 6.68829E-12-1.44424E-10 1.79040E-11 1.98524E-11
 -1       742-5.65692E-11 2.32131E-11 1.91723E-11-1.36632E-10-7.19733E-14 7.71386E-12
 -1       743-8.15638E-11-5.63964E-11 6.43580E-11-1.81566E-10 1.13999E-11 4.18795E-11
 -1       744 1.91645E-11-7.14211E-11 3.09685E-11-1.91621E-10 1.13435E-10 5.53201E-11
 -1       745-1.83279E-10-6.58309E-11 3.22328E-11 2.77207E-10-2.47597E-10 1.19550E-10
 -1       746-3.46632E-10-1.56859E-10 2.12296E-10 6.12839E-10-3.11174E-11 1.73580E-10
 -1       747-6.59267E-11 2.09925E-10-1.27024E-10-2.70825E-11-6.66537E-11-6.64770E-12
 -1       748-1.51897E-10-5.73041E-11 5.78963E-11 1.88171E-10-2.50335E-10 6.67867E-11
 -1       749-3.42488E-11 5.66953E-11-4.50615E-11-8.67573E-11-5.08140E-11 1.59675E-11
 -1       750-6.24873E-10-2.31590E-10 2.77368E-10 1.56709E-09-1.09806E-10 6.61067E-10
 -1       751 2.47220E-10-8.38228E-11 4.37543E-11-2.47549E-10 1.17827E-10 4.53243E-11
 -1       752-2.10972E-09 2.61163E-10 2.35009E-09 2.91287E-09 2.07246E-09 2.16556E-09
 -1       753-1.84584E-09 4.89978E-10 2.47602E-09 2.68177E-09 1.94074E-09 2.36824E-09
 -1       754-1.08399E-09 3.26724E-10 2.61660E-10 2.08432E-09 6.28716E-11 7.84512E-10
 -1       755-1.16261E-09 5.58016E-10 1.55502E-10 8.61992E-10 6.51359E-11 6.09118E-10
 -1       756-1.84080E-11 4.05955E-11-3.30856E-11-9.20256E-11-2.47977E-11 1.05419E-12
 -1       757-1.49876E-11 1.39474E-11-2.88078E-11-9.62983E-11-5.04047E-11-1.11357E-11
 -1       758-1.30013E-10 6.07615E-11-1.80703E-11-6.54059E-11-1.32555E-10-2.22552E-11
 -1       759-3.66997E-10-1.20389E-10 1.33307E-10 1.81445E-10-2.52686E-10 1.61233E-10
 -1       760-6.59916E-11-6.91164E-12 6.17990E-13-9.13942E-11-8.07254E-11 6.87559E-13
 -1       761-7.16709E-11-7.40604E-11 3.91815E-11-4.78213E-11-1.37083E-10 1.69981E-12
 -1       762 4.80460E-11 4.94664E-11 2.85398E-11-1.42147E-10 2.11897E-10-8.58741E-12
 -1       763-9.55577E-12 8.61796E-11 4.09052E-11-1.86417E-10 1.49067E-10-2.41851E-11
 -1       764 1.06561E-10-3.34992E-10 1.75888E-10-1.98023E-10 2.59790E-10 1.52230E-11
 -1       765-4.84897E-12-3.78871E-11 3.27545E-11-1.82910E-10 1.77955E-10 4.04672E-11
 -1       766 4.48246E-11-2.12002E-10 1.20014E-10-1.64765E-10 1.73647E-10 3.69057E-11
 -1       767-8.35446E-11-2.26470E-10 1.50166E-10-4.40458E-10 4.14441E-11 2.26388E-11
 -1       768 2.15930E-10 3.74564E-11 6.53402E-12-3.47087E-10 8.11888E-11-4.84423E-11
 -1       769-8.40799E-10-8.25097E-12 3.80992E-10 4.30335E-10-9.24981E-11 4.09500E-10
 -1       770-6.51489E-10 2.54739E-10 1.29183E-10 6.83418E-10-2.09219E-10 4.06699E-10
 -1       771-3.89265E-10-1.06278E-10 2.04116E-10 3.12019E-10-1.42202E-10 2.20437E-10
 -1       772-2.09784E-10-7.41229E-11 1.37269E-10 1.34473E-12-1.53797E-10 4.74704E-11
 -1       773-2.53118E-10 1.93628E-11 1.14156E-10-1.32861E-10-6.13606E-11 6.61097E-11
 -1       774-1.79627E-10-5.64209E-11 1.43151E-10-1.60581E-10 3.48854E-11 1.16407E-10
 -1       775-3.93634E-10-1.31634E-10 2.75883E-10-3.93723E-10-1.58101E-10 1.11275E-10
 -1       776-8.27526E-10 7.00733E-11 2.63942E-10 6.77884E-11-1.15277E-10 2.47202E-10
 -1       777 3.28716E-08-9.95872E-09-9.56825E-09 5.54211E-09 1.02802E-09 3.59138E-09
 -1       778 3.48446E-08-9.52999E-09-5.63599E-09 6.47449E-09 2.34326E-09 2.00997E-08
 -1       779 3.13745E-08-9.31064E-09-6.05327E-09 3.80517E-09 1.11612E-09 1.55657E-08
 -1       780 2.54024E-08-9.31630E-09 2.22199E-09 5.71348E-09 3.94926E-09 2.74687E-08
 -1       781-4.96314E-09-5.82059E-09 2.24322E-08 1.96687E-09 6.07001E-09 7.93512E-09
 -1       782-2.02600E-09-7.31950E-09 2.48368E-08 2.96805E-09 6.21320E-09 2.17041E-08
 -1       783 9.19201E-09-9.30158E-09 1.78474E-08 6.72382E-09 5.21816E-09 2.76108E-08
 -1       784 3.44494E-08-9.26171E-09-5.51962E-09-6.81875E-09-2.38431E-09 1.95016E-08
 -1       785 3.10022E-08-9.60798E-09-5.88269E-09-4.36414E-09-1.22154E-09 1.49219E-08
 -1       786 2.59347E-08-9.74660E-09 2.02055E-09-6.05462E-09-4.66612E-09 2.74853E-08
 -1       787 3.16021E-08-1.03261E-08-8.72407E-09-6.49996E-09-8.42230E-10 2.42919E-09
 -1       788-5.16827E-09-5.68486E-09 2.21224E-08-1.99583E-09-5.94313E-09 6.95830E-09
 -1       789-2.13021E-09-6.98488E-09 2.46922E-08-3.53615E-09-6.41308E-09 2.16139E-08
 -1       790 9.34580E-09-9.80233E-09 1.77618E-08-6.78751E-09-5.72313E-09 2.72299E-08
 -1       791 2.72561E-10 5.22146E-10-1.33609E-09-7.85792E-11 1.40167E-09-7.09428E-10
 -1       792 5.51109E-10 5.38220E-10-1.64127E-09 7.02548E-11-1.43420E-09-7.50610E-10
 -1       793 2.76331E-10 3.21556E-10-8.10432E-10-7.15342E-11-1.42517E-09-4.76225E-09
 -1       794 1.48774E-10 3.21644E-10-7.82298E-10 9.84600E-11-1.38478E-09-4.09235E-09
 -1       795 3.47917E-10 4.54596E-10-9.74943E-10 6.10955E-12 1.26186E-09-4.45607E-09
 -1       796 3.03369E-10 3.45521E-10-9.34089E-10-1.37314E-10 1.29024E-09-4.17012E-09
 -1       797-1.88776E-08 2.78434E-09 6.45480E-09-1.25181E-08 4.11750E-09 1.11746E-08
 -1       798-1.43524E-08 8.75152E-10 3.41512E-09 1.32690E-08-6.50090E-09 1.26059E-08
 -1       799 8.41110E-09-2.28906E-09-2.30517E-09 5.33594E-09 5.61738E-09 1.14557E-08
 -1       800 9.54980E-09-6.10952E-10-4.55162E-09 6.16550E-09 3.06804E-09 5.63342E-09
 -1       801 1.00036E-08-1.64544E-10-5.40539E-09 6.47368E-09 2.72070E-09 5.02670E-09
 -1       802 1.28678E-08-3.40598E-09 2.03716E-09 7.84748E-09 1.09095E-08 2.44304E-08
 -1       803 1.15711E-08-2.50825E-09 2.61897E-09-8.03759E-09-9.73026E-09 2.29329E-08
 -1       804 7.69125E-09 7.29128E-10-3.58944E-09-6.72547E-09-4.55386E-09 7.72282E-09
 -1       805 6.86642E-09-1.27016E-09 4.28768E-11-5.70784E-09-7.27399E-09 1.27672E-08
 -1       806 8.09115E-09 1.27944E-09-5.45437E-09-7.23249E-09-3.71320E-09 7.03438E-09
 -1       807 4.72032E-10 3.04390E-10-1.90708E-09-4.06124E-11 6.23970E-10-2.09454E-10
 -1       808 2.57361E-10 8.76239E-10-2.35084E-09 4.08402E-11 1.10762E-09-6.04425E-10
 -1       809 6.81982E-10 3.49322E-10-2.08286E-09-2.05918E-11-6.10440E-10-1.71196E-10
 -1       810 4.81002E-10 8.77907E-10-2.55606E-09-5.97488E-11-1.15835E-09-5.62224E-10
 -1       811 3.27988E-10 4.79226E-10-1.38124E-09-2.23393E-12 6.12168E-10-3.09555E-10
 -1       812 5.60954E-10 5.09040E-10-1.56440E-09 7.20232E-11-6.94912E-10-3.08194E-10
 -1       813 1.35207E-10 6.13089E-10-7.84525E-10-8.43965E-11 6.03370E-10-1.90034E-10
 -1       814 2.97360E-10 6.54249E-10-9.15762E-10 4.37720E-11-6.80599E-10-2.01592E-10
 -1       815 3.97465E-10 1.53016E-10-5.03728E-10-1.10137E-10 1.18229E-09-6.06228E-10
 -1       816 5.28217E-10 1.68264E-10-6.24854E-10 1.49073E-10-1.16269E-09-6.31187E-10
 -1       817-1.02379E-08-4.60836E-10 6.66212E-09 9.94306E-09-5.82448E-09 9.67184E-09
 -1       818-9.47746E-09-1.35801E-09 6.75738E-09 1.01743E-08-4.72868E-09 8.14984E-09
 -1       819-1.36057E-08 1.50661E-10 4.41584E-09 1.12656E-08-8.07834E-09 1.41859E-08
 -1       820-1.13086E-08 8.47774E-10 4.19433E-09 1.26475E-08-4.51869E-09 8.66630E-09
 -1       821-2.31673E-08 1.96895E-09 1.97914E-09 1.56327E-08-7.57010E-09 1.29773E-08
 -1       822-1.20209E-08 1.55642E-09 5.80923E-09-9.23026E-09 3.35150E-09 6.48759E-09
 -1       823-1.12783E-08 9.00545E-10 5.59880E-09-9.66199E-09 2.97947E-09 6.29753E-09
 -1       824-1.68021E-08 1.71785E-09 6.30130E-09-1.05792E-08 5.08314E-09 1.20111E-08
 -1       825-1.53509E-08 3.44668E-09 6.05903E-09-1.15672E-08 1.96071E-09 6.40845E-09
 -1       826-3.10426E-08 3.15229E-09 7.82199E-09-1.58239E-08 5.99649E-09 1.38682E-08
 -1       827 5.97142E-09 6.17756E-11-4.75637E-09 1.76441E-09-1.20088E-09-4.91812E-09
 -1       828-3.77968E-09 3.56276E-10 1.15690E-09-2.21771E-09-1.61432E-09-5.55337E-09
 -1       829-1.02362E-08 7.69942E-10 4.55208E-09-8.68843E-09 2.54622E-09 4.97637E-09
 -1       830-6.55749E-09 5.13940E-10 2.63654E-09-4.41590E-09-3.55991E-10-6.28183E-10
 -1       831-1.35514E-09 3.96505E-10 5.96336E-10-1.05132E-09-7.62274E-10-2.77881E-09
 -1       832 8.35767E-09-2.17471E-10-5.64564E-09 4.06106E-09-2.78511E-11 8.40019E-10
 -1       833 1.03423E-08-8.82586E-11-6.41515E-09 6.30014E-09 2.21573E-09 4.53740E-09
 -1       834 2.63322E-09-8.07825E-11-2.31166E-09 1.00120E-09-7.44013E-10-1.97291E-09
 -1       835 1.16803E-08-3.56436E-09-1.23882E-09 6.89838E-09 5.81560E-09 1.12460E-08
 -1       836 9.36138E-09-6.26005E-09 4.83201E-09 7.59951E-09 6.76080E-09 1.82234E-08
 -1       837 1.70066E-08-6.86357E-09 2.87964E-09 8.72231E-10 1.41199E-09 2.56098E-08
 -1       838 9.56857E-09-1.37589E-09-1.58603E-09-8.19777E-09-5.84329E-09 1.12036E-08
 -1       839 1.57122E-08-8.33234E-09 1.42927E-09-4.88339E-09-4.09981E-09 1.75062E-08
 -1       840-4.04519E-09 5.38411E-10 1.31412E-09 2.36893E-09 1.50869E-09-4.31242E-09
 -1       841 6.36931E-09-1.04747E-10-4.93547E-09-1.97733E-09 1.31199E-09-4.48808E-09
 -1       842 7.74706E-09 8.14396E-10-6.24304E-09-6.87950E-09-2.36865E-09 5.59437E-09
 -1       843 9.73672E-09-1.14781E-09-5.38875E-09-3.96528E-09-1.04495E-10 8.87864E-10
 -1       844 3.21220E-09-3.05714E-10-2.58306E-09-7.70417E-10 7.18869E-10-2.09211E-09
 -1       845-7.29636E-09 9.88692E-10 2.52931E-09 4.45200E-09 4.85955E-10-4.33338E-10
 -1       846-7.15586E-09-3.94771E-10 5.18749E-09 8.67655E-09-2.85289E-09 5.48450E-09
 -1       847-1.76871E-09 2.38075E-10 8.37629E-10 9.63637E-10 9.33385E-10-2.50122E-09
 -1       848 7.73249E-10 9.08834E-10-2.23867E-09-1.72469E-10 1.21447E-09-2.06162E-09
 -1       849 1.12819E-09 3.16542E-10-1.74451E-09-6.75889E-10 1.00088E-09-3.20886E-09
 -1       850 4.14428E-10 4.55774E-10-1.32837E-09-9.15230E-11 1.52990E-09-2.23383E-09
 -1       851 1.60397E-09-4.52143E-10-4.40773E-10 1.03414E-10-1.54362E-10-2.80323E-09
 -1       852-6.49090E-11 2.48621E-10-3.45148E-10-1.29595E-10-1.13714E-10-4.36612E-09
 -1       853 1.46124E-09-1.63812E-10-5.86561E-10-1.13758E-10 8.70001E-11-2.78097E-09
 -1       854 7.12075E-10 8.47708E-10-2.17336E-09 1.95500E-10-1.25305E-09-2.06938E-09
 -1       855 1.09481E-09 2.32472E-10-1.64957E-09 5.61406E-10-9.74814E-10-3.16252E-09
 -1       856-1.32445E-10 2.71278E-10-3.04338E-10 9.56286E-11-3.02640E-11-4.31061E-09
 -1       857 4.45114E-10 4.37025E-10-1.37578E-09 5.01024E-11-1.59069E-09-2.20820E-09
 -1       858 1.40686E-10 1.14953E-11-5.11938E-10 5.45829E-11 1.15724E-09-2.10944E-09
 -1       859-5.15278E-10 1.32965E-10 5.87129E-11 5.48284E-10 9.13593E-10-2.77769E-09
 -1       860-1.54887E-09 5.58880E-10 1.16538E-10 2.38850E-11-2.71907E-10-2.46112E-09
 -1       861-3.06242E-08 8.10653E-09 1.06056E-08-6.73432E-09 6.07873E-09 2.49989E-08
 -1       862-2.85688E-08 3.97481E-09 1.22644E-08-1.44467E-08 3.53290E-09 9.08798E-09
 -1       863-2.15111E-08 1.82819E-09 8.69395E-09 1.49383E-08-4.32239E-09 8.31739E-09
 -1       864-3.39731E-08 9.02855E-09 1.12280E-08 4.75070E-09-3.36801E-09 1.71745E-08
 -1       865-1.44442E-09 3.97957E-10 2.27625E-10 1.22987E-10 2.74904E-10-2.34459E-09
 -1       866 1.48894E-10 2.05041E-11-4.38914E-10-8.38658E-11-1.22330E-09-1.98313E-09
 -1       867-6.25501E-10 1.78343E-10 1.54775E-10-5.54322E-10-9.71420E-10-2.68647E-09
 -1       868-9.38577E-09 4.73460E-09 1.92583E-09 4.07147E-10 5.29044E-11-3.47226E-09
 -1       869-3.03499E-09 2.88524E-09 1.09086E-10 3.58671E-10 3.23669E-11-1.25678E-09
 -1       870-1.01234E-08 3.95868E-09 2.86043E-09-2.77056E-09-1.08605E-09-2.58617E-09
 -1       871-8.09459E-09 3.62698E-09 2.04382E-09 1.67283E-09 3.91442E-10-2.20918E-09
 -1       872-3.07417E-08 8.77245E-09 1.10053E-08-2.78030E-09-2.35629E-09-9.73524E-09
 -1       873-4.02859E-09 3.06917E-09 7.24595E-10-5.04895E-10 2.66805E-11-7.62535E-10
 -1       874-2.47162E-08 6.96920E-09 8.30642E-09 4.08680E-09 3.01528E-09-8.81066E-09
 -1       875-1.52158E-09 2.20769E-09-2.20168E-10-3.03864E-10-5.01911E-11-2.23890E-10
 -1       876-1.57790E-09 2.08793E-09-5.60723E-11-2.83833E-10 2.47651E-10-9.44791E-11
 -1       877-1.67304E-09 1.93690E-09-2.08614E-11 4.12950E-10-1.13657E-10-2.14114E-10
 -1       878-1.75540E-09 2.19729E-09-1.28086E-10 1.50645E-10 2.94241E-12-3.65218E-10
 -1       879-3.39451E-09 3.16455E-09 4.45674E-10-2.28058E-10-1.38372E-10-1.31774E-09
 -1       880-2.82162E-09 2.16259E-09 4.26539E-10-2.80588E-10 1.36501E-11-3.18470E-10
 -1       881-5.47435E-09 2.52246E-09 1.36198E-09-1.44621E-09-7.77761E-11-7.04370E-10
 -1       882-7.69915E-09 2.28531E-09 1.93568E-09-3.18094E-09-6.92920E-10-7.49002E-10
 -1       883-7.28371E-09 3.62270E-09 1.54375E-09-1.79195E-09-4.22884E-10-1.20043E-09
 -1       884-1.28086E-08 2.87402E-09 4.19370E-09-6.91198E-09 3.58213E-10 1.06917E-09
 -1       885-2.23477E-08 6.32878E-09 6.25629E-09-8.41305E-09-1.56024E-09-4.46025E-09
 -1       886-3.31129E-08 9.40568E-09 1.33057E-08-2.06949E-09-6.14498E-10-5.45481E-09
 -1       887-1.83936E-08 6.42871E-09 6.12682E-09-2.92019E-09-2.11587E-09-4.97775E-09
 -1       888-3.21398E-08 1.01566E-08 5.44561E-09 2.51648E-09 7.76460E-10 1.41360E-09
 -1       889-1.89138E-08 4.58192E-09 5.87235E-09 8.41328E-09 2.00729E-09-4.69608E-09
 -1       890-2.83727E-08 7.70821E-09 1.02118E-08 2.81031E-10-3.02255E-10-8.30879E-09
 -1       891-1.38321E-08 3.24068E-09 4.20232E-09 5.10550E-09 9.77589E-10-1.36242E-09
 -1       892-7.02326E-09 2.31614E-09 1.99512E-09 2.34615E-09 2.56737E-10-1.25973E-09
 -1       893-4.56361E-09 2.24678E-09 9.99841E-10 9.90186E-10-1.56868E-10-6.75880E-10
 -1       894-1.33559E-08 4.73554E-09 4.07835E-09 3.07089E-09 5.71506E-10-2.61793E-09
 -1       895-2.54117E-09 2.00499E-09 2.98865E-10 3.63106E-10 7.11383E-11-2.78726E-10
 -1       896-4.83365E-09 3.03618E-09 6.72111E-10 9.92768E-10 1.88449E-10-1.42368E-09
 -1       897-5.93467E-09 3.52845E-09 7.25028E-10 2.88446E-10 2.90239E-12-2.38541E-09
 -1       898-9.13229E-09 4.18793E-09 2.18064E-09 1.19325E-09 7.45658E-11-3.51040E-09
 -1       899-7.63562E-09 4.14925E-09 1.65064E-09 7.13513E-11 3.40602E-10-1.41238E-09
 -1       900-1.70526E-08 6.07527E-09 5.18471E-09-1.63786E-09-1.91695E-10-2.97445E-09
 -1       901-8.22050E-09 4.55386E-09 2.13683E-09-1.18572E-09-2.57852E-10-8.53701E-10
 -1       902-1.48048E-08 6.12521E-09 4.28786E-09 1.18278E-09 5.40746E-10-3.91437E-09
 -1       903 1.02581E-08-3.90967E-09-5.17415E-09-5.46180E-10 1.24446E-10-1.52096E-09
 -1       904 4.38155E-09-2.04199E-09-3.47784E-09-4.04519E-10-1.07877E-11-1.16302E-09
 -1       905 1.06353E-08-3.39420E-09-4.82886E-09 2.45371E-09-4.05425E-10-1.92870E-09
 -1       906 8.64026E-09-3.05049E-09-4.18336E-09-1.55025E-09 1.10930E-10-2.23684E-09
 -1       907 2.40338E-08-7.30278E-09-1.22819E-08 3.80515E-09-2.72466E-09-8.12348E-09
 -1       908 5.50467E-09-2.24501E-09-3.92920E-09 5.16655E-10 5.30172E-11-1.54136E-09
 -1       909 2.13967E-08-5.29341E-09-1.00511E-08-3.36351E-09 2.62634E-09-6.25245E-09
 -1       910 2.74318E-09-1.19898E-09-3.31245E-09 4.40942E-10 8.65444E-11-5.67971E-11
 -1       911 2.68387E-09-1.33619E-09-2.83037E-09 2.31714E-10-1.53292E-12-2.98619E-10
 -1       912 2.43126E-09-1.01263E-09-3.23425E-09-3.04011E-10-1.30450E-10-3.16569E-11
 -1       913 2.30378E-09-1.29714E-09-2.66604E-09-2.78944E-10 3.08083E-11-2.09665E-10
 -1       914 4.63163E-09-2.32666E-09-3.50252E-09-1.81933E-10-7.59310E-11-1.55488E-09
 -1       915 3.65781E-09-1.64886E-09-3.09192E-09 5.65117E-10 1.34465E-11-5.96864E-10
 -1       916 9.09751E-09-2.31469E-09-3.97494E-09 2.63276E-09-2.92163E-10-6.26224E-10
 -1       917 6.40064E-09-2.47458E-09-2.66197E-09 1.57824E-09 1.15571E-10-1.06585E-09
 -1       918 7.83364E-09-2.71902E-09-4.44846E-09 1.99535E-09-3.64004E-11-1.31957E-09
 -1       919 1.29040E-08-2.17496E-09-6.05767E-09 5.11487E-09 3.61843E-10 1.33796E-10
 -1       920 2.12955E-08-8.45130E-09-1.11558E-08 3.01250E-09-9.54261E-10-8.18620E-09
 -1       921 1.64049E-08-4.46245E-09-6.95716E-09 5.50562E-09-1.63868E-09-3.87625E-09
 -1       922 1.65644E-08-4.99592E-09-7.60967E-09 2.97010E-09-1.92247E-09-2.96677E-09
 -1       923 1.60780E-08-3.15089E-09-7.87403E-09-5.75369E-09 1.90229E-09-4.80218E-09
 -1       924 2.12942E-08-9.64083E-09-4.63337E-09-3.23689E-09 1.77055E-09-4.67833E-10
 -1       925 2.65240E-08-7.21051E-09-1.10252E-08-2.67004E-10 8.47494E-10-6.43308E-09
 -1       926 1.45014E-08-2.82281E-09-7.00499E-09-4.12830E-09 9.39738E-10-1.64329E-09
 -1       927 5.57436E-09-2.07949E-09-2.29807E-09-1.33274E-09-2.07087E-10-9.68153E-10
 -1       928 8.27980E-09-2.55543E-09-4.16863E-09-2.15334E-09-5.55848E-11-9.57966E-10
 -1       929 1.29260E-08-3.51734E-09-5.95206E-09-2.21588E-09 4.75054E-10-3.07385E-09
 -1       930 3.59641E-09-1.54072E-09-3.09283E-09-3.82666E-10 5.60008E-11-6.39296E-10
 -1       931 6.81443E-09-2.53640E-09-4.12816E-09-8.60506E-10 1.98428E-10-1.90673E-09
 -1       932 7.01524E-09-2.94950E-09-4.49090E-09-2.65852E-10-1.05095E-10-1.70102E-09
 -1       933 9.77029E-09-3.52687E-09-5.13551E-09-6.29105E-10-1.10765E-10-2.67423E-09
 -1       934 8.25078E-09-3.27909E-09-4.78917E-09-6.44789E-10 2.48507E-11-1.20866E-09
 -1       935 1.62587E-08-5.41467E-09-6.52406E-09 1.40384E-09 1.06358E-11-1.18985E-09
 -1       936 9.04642E-09-3.84978E-09-4.61487E-09 7.28188E-10 1.20844E-10-6.57117E-10
 -1       937 1.49167E-08-4.79760E-09-6.29100E-09-1.31552E-09 4.54353E-10-3.16495E-09
 -1       938 2.57171E-08-8.83676E-09-7.27950E-09 2.93710E-09 3.55232E-10-2.72829E-10
 -1       939-3.16168E-08 1.19722E-08 8.69885E-09-4.15937E-09 3.90369E-10-9.01947E-09
 -1       940 2.56459E-08-9.09683E-09-6.92985E-09-4.04141E-09-8.18791E-10-1.68052E-09
 -1       941-1.26448E-10-2.85485E-09 5.33054E-09-6.60457E-10-9.98184E-10 4.52449E-09
 -1       942 2.46794E-09-2.87955E-09 4.04280E-09-1.06622E-10 2.61110E-10 6.50535E-09
 -1       943 7.51026E-08-2.08566E-08-2.22187E-08 1.20178E-09 9.84344E-10 1.65556E-08
 -1       944 7.41861E-08-2.00070E-08-2.07415E-08-9.26044E-10-3.19009E-10 1.70577E-08
 -1       945 7.47911E-08-2.30638E-08-1.86560E-08-6.38247E-10 2.32544E-10 2.54002E-08
 -1       946 5.67845E-09-4.15839E-09 3.44843E-09-5.36567E-11-1.11879E-10 8.42837E-09
 -1       947 9.59323E-09-5.41042E-09 2.93605E-09 1.43516E-10-1.21401E-10 1.11124E-08
 -1       948 1.45167E-08-7.25891E-09 1.63004E-09-1.63979E-11-1.05608E-10 1.42095E-08
 -1       949 2.06093E-08-9.03229E-09 3.73546E-10-8.74348E-11-1.75434E-10 1.73221E-08
 -1       950 3.04843E-08-1.24626E-08-2.48652E-09 2.38602E-10-9.98880E-11 2.01795E-08
 -1       951 4.26833E-08-1.65050E-08-4.62134E-09 1.06945E-10-1.94668E-10 2.51474E-08
 -1       952 5.83935E-08-1.99950E-08-1.15805E-08-3.89722E-10-3.26560E-10 2.47783E-08
 -1       953-1.40949E-08 1.59967E-08-4.47168E-08-1.31909E-09-8.26259E-10-4.08822E-08
 -1       954-1.31757E-08 1.63125E-08-4.64245E-08 1.85747E-09 6.92351E-10-4.11037E-08
 -1       955 1.04119E-08 1.58146E-08-6.32254E-08 4.11524E-09 6.10922E-09-3.18538E-08
 -1       956-1.38599E-09 1.70470E-08-6.61163E-08-1.64170E-09 2.28981E-09-4.02797E-08
 -1       957-1.15698E-08 1.89908E-08-4.24536E-08 1.33029E-09-2.01574E-09-4.68917E-08
 -1       958-5.57775E-09 1.70579E-08-6.28928E-08 9.66820E-10-3.35143E-09-4.02886E-08
 -1       959 1.00963E-08 1.51349E-08-6.24387E-08-4.05268E-09-6.49666E-09-3.15313E-08
 -1       960-1.15596E-08 1.88137E-08-4.17772E-08-1.45941E-09 1.30890E-09-4.62334E-08
 -1       961-4.64095E-08 2.10840E-08-1.12721E-09 6.30023E-09 9.81984E-10-3.44620E-08
 -1       962-4.91443E-08 1.75709E-08-1.45272E-08 8.14103E-10 1.96906E-09-5.80580E-08
 -1       963-4.75320E-08 2.12802E-08-4.83099E-10-5.75481E-09-1.54622E-09-3.51490E-08
 -1       964-4.91540E-08 1.73153E-08-1.47341E-08-1.64712E-09-2.02586E-09-5.82890E-08
 -1       965-1.93021E-08 1.50549E-08-5.65309E-08-2.48614E-09 3.51721E-09-5.68144E-08
 -1       966-2.20128E-08 1.79645E-08-5.38012E-08 4.60257E-10-9.37043E-10-5.27323E-08
 -1       967-3.84366E-08 1.69374E-08-2.98264E-08-6.55367E-09-2.68579E-09-4.65123E-08
 -1       968-1.57284E-08 1.60061E-08-5.64791E-08 1.81722E-09-3.38311E-11-5.46140E-08
 -1       969-3.73803E-08 1.70651E-08-3.21218E-08 5.81576E-09 2.66057E-09-4.89356E-08
 -1       970-3.34259E-08 1.13544E-08 9.41223E-09 4.66245E-09-2.74557E-10-1.04928E-08
 -1       971 3.74968E-09 8.13195E-10-4.88111E-09-1.05735E-09-2.41549E-10-1.34308E-08
 -1       972-2.18157E-08 7.22552E-09 1.68119E-09-1.33891E-09-1.10995E-09-2.00731E-08
 -1       973 1.44049E-08 2.60826E-09-1.81101E-08 1.16599E-09 4.26698E-09-6.73166E-10
 -1       974 2.41746E-08-5.64525E-09-1.01112E-08 3.44814E-10 3.94160E-10-9.79863E-09
 -1       975 2.76421E-08-4.85134E-09-1.49373E-08 3.42996E-10 6.32511E-10-1.70503E-09
 -1       976 2.93518E-09 4.18753E-09-1.13370E-08-3.14802E-10 1.85354E-10-1.52566E-08
 -1       977 1.76784E-08-2.86179E-09-1.08526E-08 6.71069E-10 1.18786E-10-1.02634E-08
 -1       978 2.60549E-08-5.86085E-09-1.14990E-08 9.31066E-10 3.65260E-11-8.75634E-09
 -1       979 3.49872E-09 2.41732E-09-1.02170E-08 2.33593E-10-1.94398E-09-1.31135E-08
 -1       980-1.50362E-08 3.68033E-09 8.08282E-09-3.00948E-09 1.03342E-09-7.50855E-11
 -1       981 1.66685E-09 2.72170E-09-8.90359E-09-5.43622E-10 5.35674E-09 6.82824E-09
 -1       982 2.92713E-08-7.16550E-09-1.12209E-08 3.57936E-10-3.17997E-10-7.80638E-09
 -1       983-1.27816E-08 1.31281E-08-1.44613E-08 4.37548E-10 4.21072E-09-1.94671E-08
 -1       984 7.13070E-09 9.14467E-09-2.80452E-08-2.79314E-11-4.04228E-09-1.24473E-08
 -1       985 5.81402E-09 3.08802E-09-2.12641E-08-1.12832E-09-8.88210E-09-1.07745E-08
 -1       986-3.32272E-09-3.24682E-09 9.01328E-09-3.36128E-11-8.44078E-13-8.85719E-09
 -1       987-1.90099E-09 3.04346E-09-4.53504E-09-6.46737E-11-6.41580E-10-1.13573E-08
 -1       988-1.26789E-08-2.28945E-09 2.06095E-08-1.40582E-09 6.61204E-10-1.76317E-09
 -1       989 8.84555E-10 1.11180E-08-2.02306E-08-2.43759E-09-2.10204E-09-7.56988E-09
 -1       990-1.40654E-08 1.36762E-08-1.40880E-08-1.66060E-09 5.49508E-10-1.88663E-08
 -1       991 1.62618E-09 2.23134E-09-9.26225E-09-1.10803E-09-1.15703E-09-1.30601E-08
 -1       992-7.06995E-09-5.74710E-09 2.06660E-08-1.87963E-09 1.11766E-09 1.07652E-08
 -1       993 2.92597E-08-8.21960E-09-8.80711E-09-1.43182E-09 1.73532E-11-3.58597E-09
 -1       994 2.61164E-08-6.54665E-09-1.05710E-08 5.61830E-12-7.66782E-10-7.08641E-09
 -1       995 2.73414E-08-7.77409E-09-9.12093E-09-6.92195E-10 3.24959E-10 1.18699E-08
 -1       996 2.98246E-08-7.35163E-09-1.19696E-08-4.76808E-10-4.77342E-10-2.31695E-09
 -1       997 2.62612E-08-5.43752E-09-1.26320E-08 1.15937E-09 3.82825E-10-5.62019E-09
 -1       998 2.76134E-08-7.87359E-09-9.48057E-09-9.03901E-10-1.46114E-10-5.21651E-09
 -1       999 2.77514E-08-6.38977E-09-1.14736E-08 7.79659E-10-2.20292E-10-8.38663E-09
 -1      1000 1.67213E-08-1.94784E-09-8.13048E-09-2.31157E-09 5.66194E-10-9.87673E-09
 -1      1001-1.23927E-08 3.02787E-09 1.08737E-09 1.81185E-09 1.87859E-09-1.20048E-08
 -1      1002 2.58706E-08-6.25320E-09-1.08952E-08 8.81685E-10 1.26157E-10-8.12171E-09
 -1      1003 1.66800E-08-3.42327E-09-7.33024E-09-1.15187E-09-1.91679E-10-1.12245E-08
 -1      1004 2.69675E-08-6.58660E-09-1.05798E-08 4.21414E-10 1.67647E-10-8.70027E-09
 -1      1005-2.55381E-08 8.43870E-09 4.27520E-09-7.33298E-10-6.79360E-10-1.37133E-08
 -1      1006-3.18532E-08 1.01005E-08 6.21068E-09 1.93232E-10-8.88917E-10-1.80081E-08
 -1      1007-9.26604E-09 4.17795E-09-1.37658E-09-3.10188E-11-8.83081E-10-1.71551E-08
 -1      1008-2.96636E-08 1.31844E-08 1.89501E-10 2.54769E-09 1.55698E-09-1.70362E-08
 -1      1009-2.52016E-08 1.90932E-08-2.03224E-08 1.14964E-09 2.96250E-09-3.90306E-08
 -1      1010-1.09461E-08 5.30890E-09-5.95345E-09-4.71193E-09-9.33544E-10-1.91911E-08
 -1      1011-1.94928E-08 8.92889E-09-1.38751E-09-3.08176E-09-1.26690E-09-1.94258E-08
 -1      1012-2.84050E-09 9.07258E-09-1.21181E-08-1.05445E-09 1.66897E-09-1.77942E-08
 -1      1013 1.56510E-09-5.26320E-09 8.94755E-09-3.01040E-11 3.55549E-09 1.68778E-08
 -1      1014 1.45181E-08-4.98808E-09-3.14360E-09 3.13006E-10 2.53783E-09 1.57832E-08
 -1      1015-7.39205E-09 2.90240E-09-3.06493E-09-1.74649E-09 2.60463E-09 3.65393E-09
 -1      1016 2.22080E-08-5.38450E-09-9.34190E-09 1.11565E-09 2.56048E-09 1.02510E-08
 -1      1017 2.27816E-08-3.53641E-09-1.54264E-08-4.77763E-10 2.46815E-09 5.33918E-10
 -1      1018 9.36253E-09 2.94415E-09-1.44767E-08-1.89696E-10 4.57558E-09 1.87591E-09
 -1      1019-1.25762E-08 1.46156E-08-1.93791E-08 1.26148E-09 2.60016E-09-1.67680E-08
 -1      1020-1.97927E-09 8.29750E-09-1.44696E-08-9.21483E-10 4.73068E-09-3.19962E-09
 -1      1021 1.86165E-09 2.62168E-09-8.23846E-09 2.88170E-10-4.11991E-10-1.50825E-08
 -1      1022 2.01872E-08-4.19349E-09-1.04929E-08 4.54510E-10 3.03914E-10-1.02254E-08
 -1      1023 1.13242E-08-1.12377E-09-8.07571E-09 6.15816E-10-3.14484E-10-1.22636E-08
 -1      1024 1.04985E-08 6.86485E-10-1.12057E-08 2.94163E-09 5.50586E-10-1.32326E-08
 -1      1025 1.02153E-08 3.34448E-09-1.44441E-08 1.70403E-09 1.92124E-09-7.03631E-09
 -1      1026 1.53369E-08-8.22602E-10-1.39726E-08 2.89891E-09 1.57420E-09-9.12956E-09
 -1      1027 2.96858E-09 8.61029E-09-1.87844E-08-1.04221E-10 2.91584E-09-9.88050E-09
 -1      1028 2.40714E-08-5.65957E-09-1.08241E-08 5.58950E-10 2.45530E-10-9.20447E-09
 -1      1029 2.14554E-08-4.45258E-09-1.10023E-08 4.61466E-10 1.65975E-10-9.29854E-09
 -1      1030 2.23839E-08-4.04754E-09-1.25782E-08 3.37875E-10 4.97511E-10-5.85864E-09
 -1      1031 2.27727E-09 1.58037E-09-6.15275E-09-1.11055E-09-6.69287E-10-1.48340E-08
 -1      1032 2.30086E-08-2.94686E-09-1.07124E-08 3.72668E-09 1.97336E-10-9.77897E-09
 -1      1033-2.28437E-08 5.76735E-09 2.91265E-09 2.09237E-09 1.14110E-09-1.91323E-08
 -1      1034 1.39808E-08 2.46487E-09-1.78691E-08-1.03315E-09-4.36291E-09-2.03693E-09
 -1      1035 2.63947E-08-5.40421E-09-1.40214E-08 1.19242E-09-1.33024E-09-1.62098E-09
 -1      1036 3.46352E-09 4.39812E-09-1.17926E-08-6.66758E-10 8.06462E-10-1.79263E-08
 -1      1037 1.79173E-08-3.03583E-09-1.06276E-08-7.09475E-10-1.37325E-10-1.11350E-08
 -1      1038 2.66432E-08-5.62789E-09-1.11376E-08 2.16240E-10 7.68854E-10-8.86582E-09
 -1      1039 3.40522E-09 3.14729E-09-1.18363E-08-2.73788E-10 2.94636E-09-1.32581E-08
 -1      1040-1.49408E-08 3.14208E-09 8.02869E-09 2.98485E-09-8.76644E-10-5.38295E-10
 -1      1041 2.19160E-09 2.96372E-09-9.69762E-09 8.14074E-10-5.38912E-09 6.29724E-09
 -1      1042 3.02527E-08-7.98703E-09-1.10337E-08 7.44030E-10-9.14460E-11-6.74034E-09
 -1      1043-1.23373E-08 1.34028E-08-1.57530E-08-1.51704E-09-5.03582E-09-2.05372E-08
 -1      1044 7.12178E-09 9.30329E-09-2.89034E-08-6.87002E-10 4.15261E-09-1.29089E-08
 -1      1045 6.07010E-09 2.47163E-09-1.98589E-08 1.00431E-09 8.74045E-09-9.51515E-09
 -1      1046 1.60182E-09 2.64331E-09-1.03591E-08 1.17017E-09 1.54409E-09-1.28964E-08
 -1      1047-3.55979E-09-2.85751E-09 9.03996E-09 8.81145E-11 9.69116E-13-9.67462E-09
 -1      1048-2.33696E-09 3.11362E-09-5.49147E-09 5.20933E-11 1.58998E-09-1.20963E-08
 -1      1049-1.28173E-08-2.57036E-09 2.08931E-08 1.59949E-09-4.29897E-10-2.61106E-09
 -1      1050 8.34564E-10 1.11362E-08-2.09180E-08 2.44455E-09 2.56068E-09-7.82844E-09
 -1      1051-1.39878E-08 1.39111E-08-1.49905E-08 1.86078E-09-3.06839E-10-1.93408E-08
 -1      1052 2.67664E-08-7.17005E-09-9.75614E-09-2.97451E-10 2.72588E-10-5.59672E-09
 -1      1053 2.89321E-08-8.15060E-09-9.34493E-09 1.92275E-09-3.14356E-10-2.56374E-09
 -1      1054 2.66310E-08-7.98346E-09-8.27557E-09 1.19138E-09-1.36012E-10 1.15200E-08
 -1      1055 2.96756E-08-8.02410E-09-1.14910E-08 1.03168E-09-1.24385E-10-2.65940E-09
 -1      1056 2.61368E-08-5.47290E-09-1.20666E-08 2.83193E-10 1.56816E-10-6.24830E-09
 -1      1057 2.77911E-08-7.15690E-09-9.96078E-09 9.40666E-10 6.11955E-10-4.34155E-09
 -1      1058 2.83230E-08-6.67128E-09-1.11930E-08 6.04562E-10-2.48935E-11-8.09262E-09
 -1      1059-7.00856E-09-5.63032E-09 2.05880E-08 1.74506E-09-1.17890E-09 1.05399E-08
 -1      1060 1.89678E-08 3.83811E-10-8.95908E-09 4.57755E-09-6.78662E-10-9.39110E-09
 -1      1061-1.51056E-08 3.88330E-09 1.05472E-09-3.83219E-09-1.77375E-09-1.38756E-08
 -1      1062-3.25319E-08 9.48124E-09 6.30768E-09 6.15007E-10 6.36860E-10-1.70244E-08
 -1      1063-2.51813E-08 7.46520E-09 5.14375E-09 1.34969E-09 7.41790E-10-1.29365E-08
 -1      1064-1.15655E-08 3.82513E-09-7.52585E-10-2.85373E-09-1.22760E-10-1.72676E-08
 -1      1065 1.52958E-08 1.03212E-09-9.52716E-09 3.97194E-09 8.71781E-10-9.88068E-09
 -1      1066 2.28651E-08-2.69927E-09-1.06218E-08 3.17092E-09 1.39590E-10-6.14817E-09
 -1      1067 2.97458E-08-7.84203E-09-1.06658E-08 1.56748E-09-5.04676E-10-9.30644E-09
 -1      1068-2.42042E-08 1.90446E-08-2.14089E-08-2.45517E-09-3.59960E-09-3.98792E-08
 -1      1069-3.04309E-08 1.36267E-08-8.02545E-10-2.96352E-09-2.43878E-09-1.73419E-08
 -1      1070-9.82500E-09 5.84861E-09-6.37861E-09 3.52214E-09 2.57955E-09-1.92847E-08
 -1      1071-1.95329E-08 1.07606E-08-3.19542E-09 2.05555E-09 2.55518E-09-2.04696E-08
 -1      1072-2.18379E-09 9.86349E-09-1.39925E-08-7.74210E-10-1.46006E-09-2.04376E-08
 -1      1073 1.48952E-08-5.20430E-09-3.10613E-09-2.19363E-10-2.44190E-09 1.54457E-08
 -1      1074 1.71532E-09-4.88618E-09 8.39550E-09 4.45042E-10-3.21059E-09 1.64701E-08
 -1      1075-7.14255E-09 2.84834E-09-3.58648E-09 1.95758E-09-2.42822E-09 3.16068E-09
 -1      1076 2.15988E-08-3.12221E-09-1.47278E-08 1.03616E-09-2.63441E-09-5.85445E-10
 -1      1077 2.16555E-08-5.43218E-09-9.07785E-09-9.78432E-10-2.45781E-09 9.95458E-09
 -1      1078 9.90583E-09 2.70387E-09-1.46524E-08 2.85705E-10-4.77244E-09 1.05272E-09
 -1      1079-1.24148E-08 1.46671E-08-2.01381E-08-1.31811E-09-2.85047E-09-1.71500E-08
 -1      1080-1.49928E-09 8.74284E-09-1.51690E-08 5.64558E-10-5.50651E-09-3.72716E-09
 -1      1081 2.25757E-08-3.91016E-09-1.11775E-08 1.60107E-09 5.61802E-10-1.01065E-08
 -1      1082 1.23706E-08-4.26214E-10-9.21306E-09 1.02987E-09 4.08269E-10-1.19053E-08
 -1      1083 4.18130E-09 2.41009E-09-9.02341E-09-3.09810E-10 5.57043E-11-1.55844E-08
 -1      1084 1.11487E-08-3.80067E-10-9.96817E-09-2.02819E-09-5.06530E-10-1.43926E-08
 -1      1085 2.19569E-08-4.28440E-09-1.08485E-08-1.90112E-10 6.69956E-10-1.00693E-08
 -1      1086 2.65836E-08-5.98494E-09-1.07023E-08 1.93986E-09 3.30737E-10-9.82190E-09
 -1      1087 1.53355E-08-1.47230E-09-1.25105E-08-1.38750E-09-1.51180E-09-1.00953E-08
 -1      1088 9.35764E-09 3.36259E-09-1.44490E-08-1.76910E-09-2.16094E-09-9.97084E-09
 -1      1089 2.64816E-09 8.45675E-09-1.90268E-08-3.70496E-10-3.58745E-09-1.16711E-08
 -1      1090 2.20206E-08-4.20305E-09-1.19771E-08 3.76687E-10-5.98405E-10-6.68449E-09
 -1      1091-3.68713E-09-3.29150E-09 1.16745E-08 1.39238E-10 1.76919E-10 1.41045E-08
 -1      1092 3.62723E-08-1.18544E-08-7.82909E-09 2.15886E-09 7.69324E-10 2.92770E-08
 -1      1093-9.89783E-10-3.91671E-09 9.91547E-09-1.91973E-11 3.08562E-10 1.13627E-08
 -1      1094 6.08515E-09-5.91865E-09 8.11052E-09 1.42639E-10 6.81272E-10 2.24296E-08
 -1      1095-8.82288E-09-8.83906E-11 9.14686E-09-2.22149E-10-1.53936E-10 4.69619E-09
 -1      1096 1.45397E-10-3.17508E-09 8.44329E-09-4.81695E-10-9.33175E-10 8.69776E-09
 -1      1097-1.14264E-08 9.58316E-10 8.31732E-09-7.67761E-10 2.21787E-10 3.93228E-09
 -1      1098-6.44181E-09 1.36914E-09 2.72818E-09-1.12043E-09-2.82142E-10-1.82451E-10
 -1      1099-5.96044E-09-7.30248E-10 9.29984E-09-7.39810E-10-9.18347E-10 5.91233E-09
 -1      1100 7.25899E-08-2.26357E-08-2.52699E-08 4.76369E-09-2.54542E-09 5.56479E-09
 -1      1101 6.86266E-08-1.85335E-08-2.11831E-08 7.27209E-09 4.25286E-10 1.95130E-08
 -1      1102 6.49057E-09-5.02633E-09 7.14418E-09 8.90919E-10 2.77718E-09 2.52896E-08
 -1      1103-7.72767E-09-1.37177E-09 9.76542E-09-2.80648E-10 2.23055E-09 1.36068E-08
 -1      1104-5.42403E-10-4.19248E-09 1.04649E-08 1.38508E-10 4.14292E-10 1.76974E-08
 -1      1105-8.30051E-09-4.31385E-10 1.04475E-08 3.02308E-10 3.92538E-10 9.86624E-09
 -1      1106-6.16704E-09-1.76737E-09 1.07105E-08 3.32707E-10 4.01487E-10 9.27167E-09
 -1      1107-3.60693E-09-2.66786E-09 1.05164E-08-1.28662E-10-6.14788E-10 9.00972E-09
 -1      1108-1.87865E-09-3.48002E-09 1.06631E-08-2.38830E-10-9.10173E-10 1.04662E-08
 -1      1109 1.26682E-09-3.71177E-09 7.21699E-09-8.33352E-11 3.38280E-10 9.19944E-09
 -1      1110-2.13542E-09-3.56539E-09 1.06790E-08-1.90246E-10 3.68487E-10 1.24568E-08
 -1      1111-4.45795E-09-2.35032E-09 1.05642E-08-1.05594E-10-1.71622E-10 9.67206E-09
 -1      1112 4.95373E-08-1.07547E-08-1.41063E-08 8.15858E-09 5.11589E-10 2.79359E-08
 -1      1113 1.72060E-08-6.39671E-09-1.87129E-09 3.69772E-09 4.36513E-09 2.78620E-08
 -1      1114 3.95371E-08-1.45253E-08-4.94198E-09 7.50211E-11 5.93528E-10 2.70939E-08
 -1      1115 2.36720E-08-1.04830E-08 2.09938E-09 6.00908E-10 2.34721E-09 2.55033E-08
 -1      1116 2.42010E-08-1.15246E-08 1.55758E-09-1.86634E-10 7.50046E-10 2.40985E-08
 -1      1117 5.67558E-08-1.78477E-08-1.46035E-08 1.34124E-09-2.12810E-10 2.74078E-08
 -1      1118 4.83276E-09-4.79714E-09 6.47205E-09-7.51738E-11 1.11346E-10 1.18873E-08
 -1      1119 8.55512E-09-6.48737E-09 6.53311E-09 1.42638E-10 3.09381E-10 1.67289E-08
 -1      1120 3.86443E-09-4.74183E-09 7.74605E-09 8.51338E-12 1.53577E-10 1.33054E-08
 -1      1121 1.44187E-08-7.71230E-09 4.21028E-09-2.76187E-10 5.12827E-10 1.95928E-08
 -1      1122-2.47608E-09-4.16266E-09 1.16244E-08 8.16125E-11-3.35671E-11 1.38477E-08
 -1      1123 3.91418E-08-1.28144E-08-1.01348E-08-1.14868E-09-5.63417E-10 2.96274E-08
 -1      1124-1.18859E-09-3.85639E-09 9.96447E-09 2.21885E-10 3.11918E-10 1.13478E-08
 -1      1125 5.42506E-09-6.35648E-09 9.43677E-09-1.19771E-10-2.61277E-10 2.20323E-08
 -1      1126-7.80511E-09-2.85186E-10 8.52192E-09 8.51323E-10 2.24233E-10 4.98371E-09
 -1      1127-1.99035E-10-2.15473E-09 8.17651E-09 1.84586E-09 2.22781E-09 8.95941E-09
 -1      1128-1.11974E-08 1.15016E-09 7.51728E-09 2.17748E-09-1.46077E-09 5.16959E-09
 -1      1129-6.23956E-09 8.75215E-10 3.62414E-09 1.24767E-09 7.35095E-11 6.01532E-10
 -1      1130-6.00211E-09-3.49867E-10 9.37882E-09 1.22414E-09 1.53300E-09 5.59651E-09
 -1      1131 7.08134E-08-2.25174E-08-2.38461E-08-5.11636E-09 1.88995E-09 6.16232E-09
 -1      1132 6.47385E-08-1.71140E-08-1.94452E-08-8.40683E-09-1.46639E-10 1.95892E-08
 -1      1133 4.13018E-09-4.68645E-09 8.98779E-09-1.09066E-10-1.37070E-09 2.44034E-08
 -1      1134-7.84237E-09-1.81501E-09 1.15476E-08 1.78519E-09-1.11856E-09 1.54322E-08
 -1      1135 6.28254E-11-5.28250E-09 1.11910E-08-1.46103E-10 1.87088E-10 1.74940E-08
 -1      1136-8.20603E-09-1.55737E-09 1.06465E-08 1.76197E-09-1.04629E-09 1.01051E-08
 -1      1137-5.72742E-09-2.33654E-09 1.06723E-08 5.81366E-10 3.03130E-10 9.35003E-09
 -1      1138-3.58450E-09-2.43701E-09 1.05170E-08 1.33393E-09 2.13467E-09 9.08646E-09
 -1      1139-1.89832E-09-2.73580E-09 1.02637E-08 1.56791E-09 2.10618E-09 1.05827E-08
 -1      1140 1.00899E-09-3.68410E-09 7.52913E-09 3.52949E-10 4.89300E-10 9.30554E-09
 -1      1141-4.39863E-09-2.16410E-09 1.05378E-08 9.25120E-10 1.40562E-09 9.64776E-09
 -1      1142-1.92755E-09-3.86965E-09 1.07810E-08 1.10576E-10 1.86862E-10 1.25714E-08
 -1      1143 4.94619E-08-1.12304E-08-1.71612E-08-4.97783E-09 9.01634E-10 2.43413E-08
 -1      1144 2.12794E-08-7.78568E-09-2.47763E-09-2.11352E-09-2.60231E-09 2.96622E-08
 -1      1145 4.11517E-08-1.54502E-08-6.32523E-09 1.04199E-10-6.72841E-10 2.69265E-08
 -1      1146 2.30488E-08-9.97722E-09-1.94125E-10-4.41347E-10-1.64285E-09 2.46491E-08
 -1      1147 2.43026E-08-1.08100E-08 1.23589E-09 2.64763E-10 1.60517E-10 2.36105E-08
 -1      1148 5.67924E-08-1.75467E-08-1.52712E-08-1.51214E-09 1.82119E-10 2.73019E-08
 -1      1149 4.23741E-09-4.47167E-09 6.52554E-09 5.34486E-11 7.54671E-11 1.17298E-08
 -1      1150 3.83439E-09-4.92878E-09 7.69446E-09 2.65094E-11 1.22996E-10 1.32456E-08
 -1      1151 8.86158E-09-6.52325E-09 6.58680E-09 2.16926E-10 1.26111E-10 1.70549E-08
 -1      1152 1.48190E-08-7.85705E-09 4.42612E-09-2.80256E-11 9.63549E-12 1.99963E-08
 -1      1153-2.60153E-09-1.77025E-09 8.04415E-09 1.75931E-09-1.45928E-09-2.84757E-09
 -1      1154 1.00616E-09 3.91405E-10-2.84610E-09 6.92154E-11 8.90159E-10-5.49143E-09
 -1      1155-1.28058E-09-1.10618E-09-3.48941E-10 1.24951E-09-7.64020E-10-3.98861E-09
 -1      1156-6.76234E-09-5.14248E-09 2.10414E-08 2.39666E-10 9.19594E-11-2.68304E-09
 -1      1157-6.63440E-09-9.66172E-10 8.90517E-09 3.72801E-09-3.06713E-09-1.96983E-09
 -1      1158-3.35407E-09-1.55068E-09 8.79631E-09-1.90112E-09 1.75743E-09-3.98487E-09
 -1      1159-1.85597E-09-1.14295E-09 4.42005E-11-1.52545E-09 1.10016E-09-4.03599E-09
 -1      1160 1.30025E-09 4.54999E-10-3.08022E-09-1.71226E-11-1.13029E-09-5.38144E-09
 -1      1161-7.32087E-09-4.41018E-10 7.15915E-09-3.22234E-09 3.35488E-09-1.55298E-09
 -1      1162-6.18717E-09-4.91371E-09 1.98707E-08-4.25178E-10-2.98735E-10-2.93026E-09
 -1      1163 2.05884E-09 4.30154E-10-3.39088E-09 8.49504E-10-1.22624E-09-8.90162E-09
 -1      1164-3.90189E-08 1.26428E-08-6.90686E-09-2.19254E-09-4.67240E-09-2.90019E-08
 -1      1165-2.15450E-08 7.90668E-09-6.90508E-09-3.56387E-09-1.09528E-09-2.01209E-08
 -1      1166-1.32781E-08 8.66554E-09-1.47644E-08-1.08106E-09-3.18785E-09-1.41452E-08
 -1      1167-6.73886E-10 7.24694E-10-1.20716E-09 3.95915E-10 6.79456E-11-3.04523E-09
 -1      1168 5.77877E-10 4.66495E-10-1.68605E-09 1.16338E-10-1.66201E-10-3.65117E-09
 -1      1169 7.52922E-09-1.98648E-09-4.20373E-09 1.49236E-10-3.55298E-10-4.84593E-09
 -1      1170-5.01074E-09 2.88946E-09-4.25912E-10 8.43172E-11-3.53514E-10-5.52423E-09
 -1      1171 5.26761E-09-1.27865E-09-3.39623E-09 6.23195E-10-3.54170E-10-4.43824E-09
 -1      1172-3.65520E-08 7.94250E-09 1.06068E-08-4.30616E-09 1.98094E-09-3.00364E-09
 -1      1173-1.49067E-10 7.02225E-10-1.40330E-09-3.07005E-10 1.67759E-10-3.99646E-09
 -1      1174 2.46890E-09 3.58707E-10-2.72442E-09-7.39823E-10 1.57930E-10-5.09114E-09
 -1      1175 2.46114E-09 3.69946E-10-2.57471E-09-3.76956E-10 7.04943E-10-4.56103E-09
 -1      1176 5.17735E-11 3.84517E-10-1.20404E-09 1.61383E-10 3.20653E-10-3.32683E-09
 -1      1177 1.06856E-08-3.00310E-09-5.56182E-09-9.90277E-10-1.13349E-10-6.80208E-09
 -1      1178-4.58849E-10 5.42574E-10-9.79276E-10 1.80535E-10-7.10647E-11-2.39348E-09
 -1      1179-5.30252E-10 6.99913E-10-9.92241E-10-1.43619E-10 3.19591E-11-2.85605E-09
 -1      1180-1.21613E-08 3.73366E-09 1.78011E-09 1.25551E-09 4.78941E-10-8.92443E-09
 -1      1181-1.26791E-08 4.41145E-09 2.97200E-09-7.88064E-10-1.23234E-09-7.54869E-09
 -1      1182 1.01208E-08-3.07314E-09-5.54417E-09 1.92865E-09-1.31375E-09-5.14356E-09
 -1      1183 5.58504E-09 6.24939E-10-5.61493E-09-1.09268E-09-1.06776E-09-6.60605E-09
 -1      1184 2.35027E-08-3.30069E-09-1.30491E-08-2.23692E-09 6.30834E-10-4.35462E-09
 -1      1185-1.92285E-08 9.33432E-09-1.29255E-09 2.43064E-09-9.11176E-10-1.76056E-08
 -1      1186-1.32062E-08 5.24463E-09 1.26768E-09 2.75829E-09-7.85124E-10-1.40328E-08
 -1      1187 1.77455E-08-2.64067E-09-1.10477E-08-3.03845E-09-8.03956E-10-5.60257E-09
 -1      1188-2.72600E-08 9.95148E-09 6.12001E-09 4.36874E-09 3.68011E-11-1.72486E-08
 -1      1189-2.11352E-09 7.00148E-10-1.41946E-09 2.58178E-10 1.00328E-09-6.69613E-09
 -1      1190 6.86404E-10 4.12219E-10-1.50341E-09 2.46781E-11 1.68329E-10-1.96839E-09
 -1      1191-3.65106E-09 2.21065E-09-4.14787E-10-5.06671E-10-3.26869E-10-4.10993E-09
 -1      1192-1.33842E-08 3.83330E-09 2.01272E-09 2.11448E-09 8.27600E-10-1.19302E-08
 -1      1193-2.62088E-08 9.05151E-09 4.90965E-09 1.52810E-09-7.15576E-10-1.50101E-08
 -1      1194-5.47297E-09 2.45810E-09-8.60618E-11-1.38886E-09-9.41198E-10-5.39445E-09
 -1      1195 8.02416E-10 4.17214E-10-1.60052E-09-3.07558E-11-1.87001E-10-1.79773E-09
 -1      1196-2.29887E-08 4.67166E-09 9.57920E-09 6.48785E-09 1.63629E-09-4.97323E-09
 -1      1197 1.52982E-09 2.05823E-09-3.18657E-09 4.23082E-10 3.51212E-10-5.92210E-09
 -1      1198-1.08340E-08 3.50214E-09 2.10150E-09 1.03719E-09 1.26999E-09-9.56668E-09
 -1      1199 3.30987E-09 1.84049E-09-1.18505E-08 3.01146E-09 7.43720E-10-1.11110E-08
 -1      1200 2.54652E-08-3.09984E-09-1.41987E-08 3.61455E-09-1.84801E-09 3.03312E-09
 -1      1201 1.68357E-08-1.50976E-09-1.13270E-08 1.87927E-09 3.04653E-10-5.87943E-09
 -1      1202 7.87764E-09-1.84116E-09-4.08435E-09 1.72567E-09-8.28178E-10-5.02946E-09
 -1      1203 1.57252E-08-7.03588E-10-1.00658E-08 3.22471E-09 1.58452E-09-4.63649E-09
 -1      1204 1.43787E-08-1.67044E-09-7.70520E-09 2.92136E-09 5.43734E-10-2.47096E-09
 -1      1205 2.55204E-09 1.26002E-09-5.18389E-09 1.11000E-09-1.05060E-09-1.10871E-08
 -1      1206 4.87522E-09 2.16169E-09-7.32399E-09 1.62297E-09-5.49151E-10-1.28284E-08
 -1      1207-1.89014E-08 3.67390E-09 6.99663E-09 5.53530E-09 9.70770E-10-5.00517E-09
 -1      1208-2.77821E-08 9.02512E-09-5.77164E-09 2.39760E-09 2.13033E-09-2.03098E-08
 -1      1209-4.00147E-08 1.28034E-08-6.26412E-09 6.55431E-10 4.97665E-09-3.03167E-08
 -1      1210-1.52257E-08 9.24551E-09-1.25489E-08 8.05433E-10 4.33308E-09-1.24671E-08
 -1      1211-8.19504E-10 1.48544E-09-7.05375E-10 7.34882E-11-1.50048E-10-8.76442E-10
 -1      1212 9.47313E-10 5.34773E-10-1.79359E-09 3.71244E-10 1.66030E-11-2.02283E-09
 -1      1213 1.82974E-09-4.84724E-10-2.52310E-09 1.76094E-10 1.43574E-10-8.68235E-10
 -1      1214-8.44099E-10 1.27334E-09-4.89879E-10-1.74952E-10 9.39410E-11-6.21102E-10
 -1      1215 1.61555E-09-3.61602E-10-2.31893E-09-7.78001E-11-1.68741E-10-6.40619E-10
 -1      1216 6.89797E-11-2.04841E-10-2.81726E-11-3.91537E-11-3.02539E-10-1.11952E-10
 -1      1217 7.57673E-11-4.87791E-10 9.65807E-11-8.02952E-11-3.65173E-10-8.09518E-11
 -1      1218 1.40233E-10-6.41638E-10 2.79840E-10-1.53665E-10-1.75465E-10 2.00761E-11
 -1      1219 1.83235E-10-5.94830E-10 1.14656E-10 2.81672E-11-7.45013E-10-1.19491E-10
 -1      1220 1.02270E-10-3.64366E-10 1.38511E-10-1.03371E-10-1.86530E-10-2.62140E-11
 -1      1221 9.44004E-11-3.89905E-10 2.29282E-11-1.50705E-10-3.17897E-10-1.00192E-10
 -1      1222 3.00934E-08-6.87918E-09-1.30513E-08 4.17128E-09-4.81675E-10 3.26298E-09
 -1      1223 3.14963E-08-6.90409E-09-1.32047E-08-4.51004E-09-2.88303E-10 2.35582E-09
 -1      1224-1.66529E-08 3.65944E-09 5.55958E-09 5.07642E-09 1.18187E-09-4.21182E-09
 -1      1225-3.43115E-08 8.39219E-09 8.99105E-09 5.73436E-09 1.13757E-09-6.85284E-09
 -1      1226-5.78636E-10 6.79617E-10-1.12140E-09-7.08732E-10-1.33866E-10-3.03592E-09
 -1      1227 3.44336E-10 4.18511E-10-1.51009E-09-1.21599E-10-2.74952E-10-3.77490E-09
 -1      1228 2.68226E-08-5.63378E-09-1.25150E-08-3.86701E-09-6.04213E-10-2.15368E-09
 -1      1229 2.28833E-08-4.76661E-09-1.15823E-08 2.31476E-09 4.48265E-10-2.95764E-09
 -1      1230-2.58092E-08 8.80189E-09-1.06901E-08 1.06319E-09-4.26615E-09-1.92893E-08
 -1      1231-3.93472E-11 1.00115E-10-2.19194E-11 7.86209E-11-9.14204E-11-4.95704E-11
 -1      1232-2.39816E-11 5.50543E-11-1.57607E-11 6.98108E-11-4.46128E-11-5.70099E-11
 -1      1233-2.00171E-11 4.36500E-11 1.50106E-12 4.78058E-11-6.12156E-11-8.17830E-11
 -1      1234-2.61787E-11 6.63794E-11-3.89852E-12 3.16128E-11-1.06856E-10-6.00700E-11
 -1      1235 2.70039E-08-3.90660E-09-1.52665E-08-3.31573E-09 1.95800E-09 2.73305E-09
 -1      1236 7.87947E-09-1.27040E-09-5.18676E-09-1.57029E-09 1.24592E-09-4.96693E-09
 -1      1237-3.75401E-09 1.93843E-09 6.84574E-10 9.22455E-10 9.99184E-10-3.13558E-09
 -1      1238 3.78027E-09-1.03808E-09-2.30463E-09-8.65899E-10 4.29770E-10-3.07865E-09
 -1      1239 2.94227E-08-7.17894E-09-1.20954E-08 6.10419E-09-2.60087E-10 2.09183E-09
 -1      1240 3.18805E-08-7.92697E-09-1.43765E-08 2.73187E-09-4.09245E-10 6.96125E-09
 -1      1241 5.14563E-08-8.27883E-09-1.38032E-08 7.79191E-09 2.19138E-09 1.20460E-08
 -1      1242 1.97784E-08-3.39152E-09-9.22292E-09 3.98194E-09 1.04154E-10-2.02981E-09
 -1      1243 2.36097E-08-4.10848E-09-1.20750E-08-1.67073E-09-9.50540E-10-4.59204E-09
 -1      1244-1.86296E-08 8.20113E-09-4.41351E-10-2.59340E-09 8.69070E-10-1.61876E-08
 -1      1245-3.35528E-08 1.57282E-08 1.76434E-10-5.32086E-09-3.61303E-09-1.71996E-08
 -1      1246 1.04088E-10-4.42468E-10 3.43547E-11 1.66737E-10 3.28965E-10-9.90237E-11
 -1      1247 7.69510E-11-2.21663E-10-1.70753E-11 4.00692E-11 3.28492E-10-9.68818E-11
 -1      1248 8.50582E-11-5.30696E-10 1.01097E-10 8.75383E-11 3.73515E-10-7.18618E-11
 -1      1249-2.78181E-09 1.39452E-09 5.27043E-10 4.31643E-10-4.67765E-10-2.85388E-09
 -1      1250 3.50038E-09-9.44976E-10-2.29062E-09-3.89853E-10-4.46650E-10-3.07546E-09
 -1      1251 2.01355E-09-4.95064E-10-2.29711E-09 6.03599E-11-6.09856E-10-2.41319E-09
 -1      1252 1.70738E-10-5.95564E-10 1.12916E-10-2.59631E-11 7.81865E-10-1.24838E-10
 -1      1253 1.51983E-10-6.53769E-10 2.89593E-10 1.45355E-10 1.59582E-10 2.06445E-11
 -1      1254 1.53925E-10-4.30936E-10 1.48669E-10 1.01418E-10 1.86065E-10-3.52962E-11
 -1      1255-1.09748E-09 2.24817E-09-1.12141E-08-2.31419E-09 8.62887E-10-1.26969E-08
 -1      1256-1.80279E-11 1.77941E-12 2.69671E-11 6.53116E-12-5.06694E-11-1.53359E-10
 -1      1257-1.43987E-11 8.38230E-12-5.87556E-12 4.07359E-11 3.81730E-12-8.08793E-11
 -1      1258-1.50624E-11 2.24349E-11 1.30981E-11 5.41336E-11-5.17283E-11-9.40515E-11
 -1      1259-2.55175E-11 3.80966E-12 1.46108E-11 4.20052E-11-2.13428E-12-8.00737E-11
 -1      1260 5.61300E-10-1.47894E-11-1.76701E-10 1.28864E-09-1.31634E-09-7.44406E-09
 -1      1261-2.45383E-09-9.60666E-12 1.89287E-09 2.31388E-09-2.31667E-09-5.27131E-09
 -1      1262 5.14246E-09 8.26352E-09-2.70045E-08 3.26355E-10-5.26106E-09-1.37685E-08
 -1      1263-4.09777E-09 8.31046E-09-1.45780E-08 2.78925E-09-3.98097E-09-9.30321E-09
 -1      1264-7.66990E-11 7.15763E-09-1.57639E-08 1.70759E-09-3.72082E-09-1.01546E-08
 -1      1265-2.68426E-11 1.14332E-10-2.45157E-11-3.67426E-11 1.25065E-10-4.23105E-11
 -1      1266-1.88335E-11 5.44815E-11-2.62015E-12-3.23215E-11 1.02000E-10-5.37739E-11
 -1      1267-5.38995E-11 2.11128E-10-7.15613E-11-6.44885E-11 1.03459E-10-5.97617E-12
 -1      1268-5.46792E-11 1.61803E-10-4.89104E-11-6.17626E-11 9.61757E-11-6.99824E-12
 -1      1269-3.69654E-11 1.71494E-10-4.31963E-11-1.49007E-11 2.28298E-10-6.07158E-11
 -1      1270 3.57312E-12 6.30630E-10-4.99109E-10-8.20209E-10 1.45478E-09-8.02705E-09
 -1      1271 9.65611E-10 1.47168E-09-7.34732E-09-5.01422E-10 2.36653E-09-8.80961E-09
 -1      1272 6.78124E-09 5.82459E-09-2.16687E-08-5.97553E-10 6.39833E-09-8.24054E-09
 -1      1273 4.28263E-09 3.24549E-09-1.54154E-08-1.25671E-09 3.86733E-09-6.08162E-09
 -1      1274 3.02318E-09 3.40759E-09-1.01559E-08-1.44498E-09 4.66942E-09-6.47331E-09
 -1      1275-2.13566E-11 9.44370E-11-2.86962E-11-5.21150E-11 8.28379E-11-4.74718E-11
 -1      1276-7.68407E-09 2.62908E-09 1.97868E-09 1.82107E-09 1.06555E-09-5.50811E-09
 -1      1277 1.41225E-08-2.15816E-09-1.21119E-08-3.42754E-10-1.16008E-09-7.97120E-09
 -1      1278 1.40060E-08-1.85601E-09-1.24117E-08 3.22481E-10 6.56934E-10-9.12829E-09
 -1      1279 8.10314E-09-7.04032E-10-2.36969E-09-1.64389E-09-1.90266E-09-5.27548E-09
 -1      1280-3.94704E-08 8.33619E-09 7.42639E-09 6.65672E-10-1.61080E-09-1.24724E-08
 -1      1281 1.62939E-10-6.60091E-10 7.44569E-11-2.00480E-10-5.61075E-10-1.45083E-10
 -1      1282 2.69605E-10-7.49629E-10 6.04274E-11-5.34482E-11-1.02963E-09-1.89498E-10
 -1      1283 2.78407E-08-6.03630E-09-1.20143E-08-5.01861E-09 5.72813E-10 6.94980E-10
 -1      1284 2.13283E-08-4.46088E-09-8.19844E-09-5.00933E-09-1.59254E-09 2.67316E-09
 -1      1285 4.24180E-09 8.89136E-10-3.56663E-09-9.62113E-10 6.20699E-10-6.64670E-09
 -1      1286-4.58948E-10 1.50927E-09-2.26799E-09 9.08800E-11-1.02189E-09-5.16580E-09
 -1      1287-1.06115E-08 2.69221E-09 4.10837E-09-3.96148E-09-1.09818E-09-2.50663E-09
 -1      1288-4.71175E-09 1.95223E-09 1.13177E-09-1.35277E-09-1.32165E-09-3.71896E-09
 -1      1289 7.93317E-09 2.47960E-10-1.26712E-08-4.93040E-09-5.06806E-10-1.04827E-08
 -1      1290 2.75109E-09 7.35264E-10-2.02216E-09-1.47696E-09-2.51507E-10-7.11499E-09
 -1      1291 5.34620E-08-9.01104E-09-1.67671E-08-4.95145E-09-1.09526E-09 8.78291E-09
 -1      1292 9.37158E-09-6.57410E-10-6.44517E-09 2.45846E-09-6.43914E-10-5.50856E-09
 -1      1293 8.80201E-09 8.35332E-11-6.40663E-09 2.40457E-09-4.72210E-10-8.80536E-09
 -1      1294 1.83887E-09-4.22824E-10-2.53866E-09 1.01920E-10 6.28359E-10-1.01312E-09
 -1      1295-9.30917E-10 1.38784E-09-4.26365E-10-1.64014E-10 7.02421E-10-6.87661E-10
 -1      1296 8.97416E-11-2.65524E-10 1.00140E-11 1.17574E-10 3.54983E-10-7.06307E-11
 -1      1297-1.11494E-09 1.31861E-09-3.76955E-10 9.23010E-11-5.35520E-10-2.27052E-09
 -1      1298 1.08039E-10-5.78217E-10 1.32555E-11-1.96448E-10-5.06700E-10-1.47243E-10
 -1      1299 2.30277E-09 5.28698E-09-1.24096E-08-8.10436E-10 2.63168E-09-6.44775E-09
 -1      1300 2.77616E-09 5.84283E-09-1.68802E-08-2.72670E-10 1.38299E-09-5.41090E-09
 -1      1301-3.35942E-09 1.58424E-09 6.62736E-10-7.08823E-10 2.48194E-10-3.17475E-09
 -1      1302 2.49092E-09-6.02385E-10-2.56672E-09 4.51949E-11 5.58432E-10-2.57899E-09
 -1      1303-1.28696E-09 1.42333E-09-2.62366E-10-7.10939E-11 5.75442E-10-2.25164E-09
 -1      1304 3.93749E-09-1.04335E-09-2.59212E-09 6.72726E-10 4.23494E-10-3.02840E-09
 -1      1305 1.86601E-10-7.25400E-10 6.96049E-11 2.10831E-10 5.93913E-10-1.54362E-10
 -1      1306 2.76409E-10-7.85887E-10 3.41968E-11 7.38323E-11 1.06336E-09-1.98152E-10
 -1      1307-9.03916E-10 1.35317E-09-6.90873E-10 1.49804E-10-6.39624E-10-1.00382E-09
 -1      1308 1.74115E-09-3.39126E-10-2.47258E-09-8.71049E-11-6.83865E-10-7.84847E-10
 -1      1309 2.33804E-08-3.41466E-09-1.13929E-08 4.58273E-09 1.84203E-09-1.37600E-09
 -1      1310 2.42367E-08-4.91138E-09-1.14110E-08 3.31919E-09 6.10610E-10-4.69966E-09
 -1      1311 1.00578E-08-9.71028E-10-7.62007E-09 2.22355E-09-5.45262E-10-5.09850E-09
 -1      1312 1.13464E-10-6.13729E-10 7.31551E-12 2.28533E-10 5.41541E-10-1.70991E-10
 -1      1313-2.73335E-08 8.88792E-09-9.54177E-09-1.16677E-09 4.65483E-09-1.89026E-08
 -1      1314-4.24911E-11 1.92097E-10-9.28069E-11-5.52065E-11 4.41836E-11-3.48996E-12
 -1      1315 1.13859E-08-1.89548E-09-6.15133E-09 3.27195E-09-2.84093E-10-1.30885E-09
 -1      1316 4.89460E-09-1.31182E-09-2.90053E-09 1.12810E-09-7.91129E-10-3.24359E-09
 -1      1317 1.19783E-09 1.58397E-09-6.21357E-09 3.32579E-10-1.49097E-09-8.92897E-09
 -1      1318 6.08307E-09 8.43567E-09-2.70422E-08-9.36008E-10 4.56537E-09-1.32606E-08
 -1      1319 1.28508E-09 6.27412E-09-1.40254E-08-1.79590E-09 3.98210E-09-9.78482E-09
 -1      1320 8.07642E-11-5.56816E-11-1.03487E-10 5.70173E-11 4.14479E-10-1.79341E-10
 -1      1321 5.33255E-11-7.63485E-11-1.33920E-11 5.45592E-11-5.55691E-11-1.35556E-10
 -1      1322 5.28294E-11-2.30813E-11-1.28112E-11 8.13067E-11-3.33308E-11-6.97080E-11
 -1      1323 3.81539E-11-3.52399E-10 9.13002E-11 1.87512E-10 3.92648E-10-1.13718E-10
 -1      1324 1.50181E-11-2.15561E-10 4.39474E-11 1.38819E-10 2.63139E-10-1.19822E-10
 -1      1325 3.69466E-11-2.29232E-10-1.06138E-12 1.44581E-10 3.24965E-10-1.02127E-10
 -1      1326-2.52191E-11 4.64166E-11 5.32978E-12-5.70029E-11 8.86854E-11-7.11681E-11
 -1      1327-2.91938E-11 1.39491E-11 1.79981E-11-1.51802E-11 9.43236E-11-1.23280E-10
 -1      1328-3.12699E-11 7.54759E-12 1.38299E-11-4.59127E-11-6.09156E-12-7.80128E-11
 -1      1329-2.46256E-11 2.77605E-11 3.90154E-12-2.87604E-11-5.74287E-12-8.37825E-11
 -1      1330-1.91121E-11 3.24941E-11 2.38839E-13-5.14055E-11 3.74129E-11-8.21291E-11
 -1      1331-2.09441E-11 1.02843E-11 4.38832E-12-2.14513E-12 4.01463E-11-1.30452E-10
 -1      1332-5.24435E-09 7.48898E-10 2.21712E-09-3.68013E-10-7.29491E-11-3.98002E-11
 -1      1333-5.65615E-09-4.95172E-10 7.98633E-09-4.48679E-10-7.15390E-10 5.32141E-09
 -1      1334-7.69109E-09-2.31382E-10 8.29592E-09 1.37250E-10-3.53130E-11 4.77311E-09
 -1      1335-1.39558E-10 4.64209E-11-1.13931E-11 4.63238E-11 1.29805E-10-4.09377E-11
 -1      1336-1.13598E-10 2.25523E-10-6.28326E-11-2.83498E-11-7.75517E-11 1.34040E-10
 -1      1337-2.70113E-10 3.00747E-10-2.15162E-11 6.66617E-12-6.37837E-11 1.59578E-10
 -1      1338-3.02650E-10 6.42318E-11 4.85619E-11 1.33927E-10 1.56333E-10-2.96838E-11
 -1      1339-3.91224E-11 7.81990E-11-3.31461E-11 5.47622E-11-2.64393E-11-3.03719E-11
 -1      1340-7.48673E-11-5.29892E-10 2.19810E-10-5.27647E-10-5.50971E-10-4.96243E-11
 -1      1341 5.58408E-11-4.42040E-10 5.50197E-11-2.43862E-10-3.40410E-10-1.00049E-10
 -1      1342 2.70910E-10-1.07065E-09 3.22697E-10-4.98059E-10-5.92832E-10-5.26291E-11
 -1      1343 1.62796E-08-3.30764E-09-1.13697E-09 5.97414E-09 3.12923E-10 1.95649E-08
 -1      1344 2.09357E-08-2.40728E-09-8.98114E-09 4.20796E-09-4.38178E-10 1.45993E-08
 -1      1345-1.26882E-11 2.40861E-09-9.03221E-09 5.13343E-09 4.13006E-10 2.54314E-09
 -1      1346-4.65441E-11-2.32510E-11 2.01916E-11-1.14701E-10-1.47179E-11-5.14212E-11
 -1      1347-3.52449E-11-3.91163E-11 1.76228E-11-1.55557E-10-3.38474E-11-4.94808E-11
 -1      1348-4.73806E-11 2.28727E-12 1.80859E-11 9.38272E-11 1.74220E-11-5.38645E-11
 -1      1349-4.25838E-11-1.09150E-11 1.54712E-11 1.43994E-10 9.14884E-12-4.74918E-11
 -1      1350-3.22830E-08 1.50812E-08 9.00901E-10 5.96375E-09 2.40271E-09-1.69244E-08
 -1      1351 3.24584E-11-3.19411E-11-9.64240E-11 2.50785E-11 3.44144E-10-1.90213E-10
 -1      1352 5.63282E-09 4.29574E-09-1.72151E-08 1.16523E-10-5.08197E-09-6.98852E-09
 -1      1353 3.05226E-09 2.80837E-09-9.91379E-09-3.44572E-10-4.54246E-09-5.24523E-09
 -1      1354-1.12947E-09 7.20183E-09-1.26688E-08-1.29927E-09 2.38973E-09-4.00232E-09
 -1      1355-2.17990E-10 4.11829E-10-7.97456E-11-3.55366E-10-9.26828E-11 2.76342E-10
 -1      1356-2.72012E-09 6.74366E-10 8.98994E-10-2.40193E-09 2.31563E-09-5.87227E-09
 -1      1357-2.87460E-09 7.97156E-09-1.44433E-08-2.56760E-09 4.20731E-09-8.89844E-09
 -1      1358-1.58458E-09 1.70904E-09-1.54627E-09 1.51002E-10 1.11993E-09-6.98081E-09
 -1      1359 2.32543E-08-4.03020E-09-1.07968E-08 2.81879E-09 1.53750E-10-5.53035E-09
 -1      1360 9.94934E-09-8.69021E-10-6.57864E-09 2.02935E-09-6.73418E-10-4.74103E-09
 -1      1361 2.75367E-08-2.94546E-09-1.43236E-08 5.88090E-09-1.55135E-09 6.05064E-09
 -1      1362 1.14621E-08-3.34477E-10-1.22338E-08 4.55824E-09-4.18410E-11-8.42926E-09
 -1      1363 1.69287E-11-6.03027E-11-5.40794E-11 3.86445E-11 3.23073E-10-1.80175E-10
 -1      1364-1.15690E-08 9.33130E-09-2.20226E-08-3.08366E-09-6.81737E-10-1.95145E-08
 -1      1365-5.13598E-09 1.08093E-08-2.33852E-08-8.60228E-10-1.66581E-09-1.41025E-08
 -1      1366-9.23947E-09-4.22816E-10 1.41982E-08-3.80628E-09-4.14750E-09 9.83032E-09
 -1      1367-8.07244E-09 6.10750E-09-7.15488E-09-1.48792E-09-2.70931E-09-2.84109E-09
 -1      1368-2.42809E-09-6.99077E-10 5.21160E-09-3.32665E-09-2.16171E-09 1.24754E-08
 -1      1369-7.53199E-09 9.86706E-09-2.19675E-08 3.51264E-10 3.67487E-09-1.61080E-08
 -1      1370-4.05974E-09-5.45907E-10 5.79900E-09 2.97631E-09 2.44992E-09 1.17399E-08
 -1      1371-1.02059E-08-7.59300E-10 1.54686E-08 3.45063E-09 4.55098E-09 1.11834E-08
 -1      1372-1.14803E-08 9.61674E-09-2.30911E-08 3.33770E-09 4.67444E-10-2.00766E-08
 -1      1373-8.85291E-09 6.27534E-09-5.59582E-09 1.42938E-09 2.78287E-09-6.45697E-10
 -1      1374-6.62855E-09 9.83581E-09-2.29512E-08 3.57935E-11-3.81369E-09-1.61946E-08
 -1      1375 8.77843E-11 1.01689E-09-5.60483E-09 9.55187E-10 1.30247E-09-3.02856E-09
 -1      1376 1.06158E-09 8.16428E-10-7.79303E-09 8.43740E-10 2.32932E-09-2.59026E-09
 -1      1377 2.69310E-09 2.02113E-09-1.09466E-08 7.76313E-10 2.32354E-09-5.24313E-09
 -1      1378 3.95738E-09 2.51081E-09-1.24269E-08-2.51217E-10 1.49027E-09-1.88123E-09
 -1      1379 2.43909E-09 2.14049E-09-1.01361E-08-5.87536E-10 1.69832E-09-2.80722E-09
 -1      1380 5.51197E-09 3.79303E-09-1.72853E-08-1.08959E-10 4.48858E-09-6.69392E-09
 -1      1381-5.80313E-11 3.55227E-11 7.17850E-12-5.89088E-11 7.45566E-12-6.66097E-11
 -1      1382-6.36008E-11 4.48151E-11-2.21967E-13-5.70480E-11 8.29729E-12-3.29610E-11
 -1      1383-2.49063E-11 4.79434E-11-1.74989E-11-5.38448E-11 4.47184E-11-4.62341E-11
 -1      1384-1.92482E-09-8.46243E-11 3.37108E-09 6.77972E-10 1.10413E-09 1.41034E-09
 -1      1385-2.44622E-09-1.02651E-09 5.29546E-09 9.94296E-10 9.67129E-10 2.66446E-09
 -1      1386-2.32714E-09-6.22569E-10 4.16262E-09 4.33626E-10 8.41879E-11 1.64788E-09
 -1      1387 4.11625E-10-1.26018E-09 7.81535E-11 4.57788E-10 9.68963E-10-1.01200E-10
 -1      1388 4.18577E-10-1.07789E-09 2.77561E-10 2.65165E-10 3.02673E-10-8.67791E-11
 -1      1389 1.60748E-08-2.48570E-09-9.11969E-09-4.13204E-09 1.49874E-09-2.13975E-09
 -1      1390-2.41718E-11-5.33224E-11 3.18585E-12 5.22273E-11 1.99035E-10-1.44941E-10
 -1      1391-3.88851E-11-7.79810E-12-1.87841E-12 3.91274E-11 1.16547E-10-1.29550E-10
 -1      1392-8.60007E-11-6.07711E-11 2.88323E-11 1.77211E-10 1.13787E-10-6.97962E-11
 -1      1393-3.77857E-11 1.47827E-12-2.19327E-11-4.34649E-11-2.10183E-10-1.61036E-10
 -1      1394-1.58687E-11-3.59268E-11 3.75245E-12-4.71283E-11-2.75505E-10-1.71412E-10
 -1      1395-5.87909E-11-9.71497E-11 3.88665E-11-2.29564E-10-2.31212E-10-1.03695E-10
 -1      1396 8.10478E-09 3.50852E-09-1.31998E-08 3.22798E-09-8.53587E-12 1.24530E-09
 -1      1397 3.66115E-10-1.17454E-09 1.11585E-10-4.63169E-10-8.28648E-10-7.36031E-11
 -1      1398-2.31214E-09-2.24029E-10 2.75273E-09 6.31019E-10 3.60337E-10 7.24262E-10
 -1      1399 2.98097E-09 3.30077E-09-1.40763E-08 4.91946E-10-2.68662E-09-4.82735E-09
 -1      1400-8.93090E-10-1.49758E-09 5.37789E-09-8.85563E-10 1.81772E-11 4.11067E-09
 -1      1401-9.09547E-10-7.10906E-10 3.57631E-09-1.37118E-09-1.80999E-09 3.16296E-09
 -1      1402-1.32029E-09-1.36421E-09 6.59995E-09-8.71416E-10-7.44693E-10 3.77152E-09
 -1      1403-1.15762E-10 1.02484E-09-6.02806E-09-4.17938E-10 4.30908E-10-2.23221E-09
 -1      1404 4.21542E-10-1.11101E-09 2.94728E-10-3.25314E-10-2.87292E-10-8.07874E-11
 -1      1405 5.30456E-11-5.75116E-10 5.39183E-11 3.29015E-10 4.33262E-10-1.30907E-10
 -1      1406-2.13576E-11 3.19904E-11-5.53406E-12 6.17509E-11-4.09561E-11-6.12462E-11
 -1      1407-3.95741E-09 1.05587E-08-2.49757E-08 5.79898E-10 8.98742E-10-1.50512E-08
 -1      1408-1.22242E-08 1.97031E-09 8.02026E-09-4.13177E-11-7.07673E-10 1.73066E-09
 -1      1409-1.29424E-09 7.64754E-09-1.31809E-08 1.18677E-09-1.19052E-09-5.13323E-09
 -1      1410-4.57482E-09 8.73844E-09-1.40783E-08-3.63157E-10-4.92564E-10-1.04322E-08
 -1      1411-2.54756E-09 4.29296E-09-9.82009E-09 2.01129E-10-3.26935E-09-1.15926E-08
 -1      1412-3.89561E-10 5.51950E-09-1.04291E-08 2.15132E-09-4.48803E-09-4.36431E-09
 -1      1413-1.27390E-08 3.64443E-09-2.54716E-09 6.52431E-10 3.51917E-10-1.70399E-08
 -1      1414 4.16447E-11-4.55672E-10 7.36568E-11 2.84513E-10 4.59698E-10-9.37022E-11
 -1      1415-1.66702E-10 1.28391E-10-2.29719E-11-6.34890E-11-7.86178E-11 4.75474E-12
 -1      1416-9.60825E-11 9.70477E-11-1.67030E-11-1.84593E-11-1.96527E-11-1.18349E-11
 -1      1417-1.06772E-10 2.02954E-10-3.03309E-11 4.60112E-11 8.35339E-11 1.36201E-10
 -1      1418-5.46289E-11 8.48310E-12 1.19269E-11 7.26182E-11 3.72387E-11-6.40420E-11
 -1      1419-6.17550E-11 7.48838E-12 1.09304E-11-7.81592E-11-2.41906E-11-6.18828E-11
 -1      1420-5.32724E-11 2.67193E-11 1.65997E-11-6.69130E-11-6.70782E-12-5.99829E-11
 -1      1421-1.02101E-08 4.27027E-10 7.20224E-09-1.07524E-09-4.60147E-10 1.00249E-08
 -1      1422-2.79810E-09 7.15331E-09-1.14717E-08-1.12358E-09-3.58789E-09-8.84232E-10
 -1      1423 3.48440E-10-1.28908E-09 2.84992E-10 6.00553E-10 8.50896E-10-1.66958E-10
 -1      1424-1.18423E-10-5.94820E-10 1.97412E-10 6.18233E-10 6.00582E-10-1.28553E-10
 -1      1425-7.06903E-11 2.91695E-11 8.78392E-13-7.54523E-11-6.36351E-11-6.77858E-11
 -1      1426-2.77897E-11 1.46866E-11-3.02212E-11-6.37961E-12-6.30744E-11-1.43397E-10
 -1      1427-6.54608E-11-4.29958E-11 1.36185E-11-1.51859E-10-2.03837E-10-9.90339E-11
 -1      1428-1.07145E-10 7.77907E-11-1.53145E-11 9.58501E-12 1.59021E-11-1.06795E-11
 -1      1429-5.94287E-11 2.30989E-10-8.26209E-11 2.55326E-11-1.21459E-10 9.51042E-11
 -1      1430-9.09845E-09 8.47504E-10 7.07443E-09-9.19059E-10 4.93061E-10 4.02328E-09
 -1      1431-6.80877E-09-1.21517E-09 9.88240E-09-8.45704E-10 2.70646E-10 9.03185E-09
 -1      1432-5.82953E-09-2.00445E-09 1.03528E-08-7.54566E-11-1.33196E-10 9.15360E-09
 -1      1433-6.68881E-09 1.55386E-09 2.62265E-10 5.21169E-10-1.15642E-09-1.66565E-09
 -1      1434-1.06235E-11 1.07990E-10-4.38953E-11-5.17125E-11 1.19879E-10-1.37883E-11
 -1      1435-4.76965E-11 1.10949E-10-4.46092E-11-4.19550E-11 4.25320E-11-2.14565E-11
 -1      1436-5.39301E-11 2.12582E-10-6.83232E-11-1.15461E-11 1.58226E-10 9.25942E-11
 -1      1437-1.66446E-09-1.08858E-09 5.28712E-09 1.43644E-09 1.26017E-09 3.04061E-09
 -1      1438-1.82623E-09-4.24755E-10 7.19557E-09-1.12704E-10-6.89869E-11 7.10359E-09
 -1      1439-1.11020E-09-1.12507E-09 5.40919E-09-1.38390E-09-1.16592E-09 3.68178E-09
 -1      1440-2.68669E-09-1.58349E-11 6.77599E-09-1.95146E-10 7.91874E-11 5.90673E-09
 -1      1441-4.44308E-09 2.40861E-10 6.89157E-09-1.78369E-10 1.81966E-11 4.43371E-09
 -1      1442-1.80910E-09-7.82781E-10 4.87938E-09-9.77100E-10-1.09952E-09 2.46456E-09
 -1      1443-7.08369E-11 2.10755E-10-3.50876E-11-4.75998E-11 3.09411E-10-3.89500E-11
 -1      1444-3.58506E-09 5.90893E-10 2.49572E-09 1.34298E-10 4.37851E-10 6.96205E-10
 -1      1445-1.24306E-09 6.61632E-10-1.95858E-09-3.63826E-10-8.05999E-11-2.31134E-09
 -1      1446-2.50709E-09 1.14023E-10 2.54463E-09-5.10764E-10-4.58932E-10 5.57695E-10
 -1      1447-1.04360E-09 8.32435E-10-2.46424E-09 4.70402E-10-1.97740E-11-1.95368E-09
 -1      1448-2.48522E-09 1.33956E-09-3.13759E-09 3.26044E-10-2.40125E-10-3.30918E-09
 -1      1449-2.81821E-11-5.59911E-11-9.87686E-12 5.24312E-11 2.93874E-10-2.00408E-10
 -1      1450-5.57529E-11-1.30089E-10 4.51219E-11 2.01744E-10 2.25330E-10-1.08940E-10
 -1      1451-1.83771E-09 1.93844E-11 3.25746E-09-9.26285E-10-1.19351E-09 1.44971E-09
 -1      1452-2.18038E-09 4.36609E-10 1.59210E-09-3.99954E-10-6.38241E-10 4.11377E-10
 -1      1453-2.08903E-10 3.39389E-10-3.13924E-09 1.48832E-09 2.47700E-09-2.44137E-09
 -1      1454-1.16539E-10 6.51930E-11-1.07548E-11-6.06199E-11-4.76990E-11-7.71401E-12
 -1      1455-2.49281E-10 7.65474E-11 4.31079E-11-1.59937E-10-9.89649E-11 2.30116E-11
 -1      1456-1.26593E-09-1.19403E-09 4.34083E-09-1.26264E-09-2.45143E-09 2.14127E-09
 -1      1457-1.09871E-09-2.04493E-09 6.17076E-09-3.77626E-10 2.35680E-11 3.17750E-09
 -1      1458 8.64348E-09 3.45499E-09-1.37876E-08-2.33308E-09 2.19444E-11 7.90271E-10
 -1      1459 1.72061E-08-3.75654E-09-1.31131E-09-5.94008E-09-7.88467E-10 1.98309E-08
 -1      1460-1.23017E-09-8.74542E-10 4.27300E-09 1.98386E-09 2.20467E-09 3.63282E-09
 -1      1461-2.08825E-09-9.70236E-10 7.41652E-09 2.99450E-10-8.94533E-11 5.58360E-09
 -1      1462 2.21002E-08-2.70277E-09-9.43462E-09-4.31489E-09-1.28799E-10 1.49954E-08
 -1      1463 1.11437E-09 2.07979E-09-7.91639E-09-4.46066E-09 3.52771E-10 4.79334E-09
 -1      1464 4.34428E-09 2.50867E-09-1.24689E-08 1.94243E-11-1.90844E-09-2.32900E-09
 -1      1465 4.24368E-11 1.14272E-09-5.76130E-09 2.55090E-10-5.66008E-10-2.28505E-09
 -1      1466-3.97733E-10 9.83966E-10-4.89103E-09-1.03404E-09-1.28255E-09-3.29326E-09
 -1      1467 3.03242E-09 1.83953E-09-1.17727E-08-5.76707E-10-3.42072E-09-5.93727E-09
 -1      1468-1.40795E-09 5.59265E-10-1.88409E-09 5.81262E-11 4.29617E-10-2.47482E-09
 -1      1469-7.80242E-11-3.46300E-13 6.05990E-12 1.14269E-10 1.01721E-10-6.37328E-11
 -1      1470-1.15360E-08 8.98170E-10 9.64501E-09 8.64563E-10-3.79475E-09-2.87421E-10
 -1      1471-8.75871E-11 4.05932E-10-9.76379E-11-1.13510E-10 1.88981E-10-3.19371E-11
 -1      1472-9.47826E-11 4.28646E-10-9.18138E-11-7.96325E-11 2.24618E-10 1.16713E-10
 -1      1473 2.45389E-09 5.85403E-09-1.64560E-08 8.91225E-10-6.85367E-10-5.61467E-09
 -1      1474-9.56051E-10-1.72365E-09 4.73216E-09 1.44489E-09 2.63565E-09 2.22944E-09
 -1      1475 5.48662E-11-2.53348E-11-2.21893E-11-7.29603E-11 4.23427E-11-6.50904E-11
 -1      1476 1.49043E-11-3.87812E-11-3.92480E-12-9.36570E-11 3.31557E-11-7.07110E-11
 -1      1477 9.10011E-12-3.01570E-11 3.23575E-11 8.75289E-11-2.12161E-11-8.05006E-11
 -1      1478-4.12957E-09-2.33578E-09 9.92844E-09-3.85798E-10-8.23018E-10 9.42423E-09
 -1      1479-1.38010E-10-4.86515E-10-3.99808E-10-9.93329E-10-9.78630E-10-6.39542E-10
 -1      1480 2.18099E-10-7.21075E-10-6.30928E-10-7.65172E-10-8.09535E-10-4.62006E-10
 -1      1481 3.82281E-09 1.22748E-09-1.30827E-08-3.00462E-09-2.27272E-09 2.48219E-09
 -1      1482-2.04873E-08 6.22109E-09-1.03984E-09 5.33240E-09 1.95868E-10-4.61340E-09
 -1      1483 1.89024E-08-3.43223E-09-3.86280E-09-3.64635E-10 1.72226E-09 2.47765E-08
 -1      1484 4.29412E-08-7.58866E-09-1.59557E-08 6.05401E-10 5.62866E-10 2.16081E-08
 -1      1485-8.11029E-12-3.12990E-10 7.47163E-11-2.65117E-10-4.03527E-10-9.52979E-11
 -1      1486 3.56290E-10 1.16113E-09-6.41454E-09 6.80628E-11-6.01304E-11-2.08371E-09
 -1      1487 2.74576E-09 3.65130E-09-1.23417E-08-1.14725E-10 5.27155E-10-3.66071E-09
 -1      1488 2.82593E-08-2.56121E-09-1.61846E-08-5.41481E-09 1.87379E-09 5.36419E-09
 -1      1489 1.78514E-09 1.22550E-09-9.80575E-09 2.38220E-10-5.49577E-10-1.27419E-09
 -1      1490-4.84680E-09 8.55394E-09-1.13583E-08-3.17513E-10-7.16711E-10 2.88108E-10
 -1      1491-2.44517E-08 6.93237E-09-2.99640E-10-2.38174E-10 2.81516E-09-8.39364E-09
 -1      1492 1.68622E-09 7.99705E-09-1.24733E-08 7.97203E-10 2.85987E-09 3.41583E-09
 -1      1493 3.61176E-10-8.30454E-10-8.87277E-10 7.11442E-10 1.09845E-09-4.52827E-10
 -1      1494-1.81536E-10-5.12604E-10-8.45241E-10 8.62892E-10 1.18019E-09-8.31267E-10
 -1      1495 3.65794E-08-1.20768E-08-8.39362E-09 3.49788E-10 1.27680E-11 2.86139E-08
 -1      1496 4.01661E-08-1.45733E-08-5.04346E-09 2.98152E-10 3.72014E-10 2.62780E-08
 -1      1497 5.43753E-08-1.73494E-08-1.39929E-08-2.18028E-10-1.19527E-10 2.69621E-08
 -1      1498 3.32641E-10-3.42343E-09 1.15776E-08-4.44415E-11-3.97016E-10 2.46618E-08
 -1      1499-1.95737E-08 6.63489E-09-8.75254E-10-5.38314E-09-2.29376E-09-6.07644E-09
 -1      1500-4.72297E-10 3.36907E-10 9.30235E-11 1.79404E-10-7.40877E-12-3.04604E-11
 -1      1501-1.36020E-11 1.15044E-10-4.62132E-11 6.31683E-11-1.15445E-10-1.01517E-11
 -1      1502-1.09338E-10 4.26358E-10-9.80126E-11 9.80809E-11-1.95078E-10-4.18961E-11
 -1      1503-1.00150E-10 4.40860E-10-1.13225E-10 4.85921E-11-1.74423E-10 1.15721E-10
 -1      1504-1.30972E-09 3.71819E-10-1.91258E-10 2.80726E-10 3.12153E-10-4.50022E-10
 -1      1505-1.47354E-09 2.15661E-10 9.78295E-10-1.93125E-10-2.44292E-10 1.71399E-10
 -1      1506-2.12475E-09 3.43900E-10 1.77322E-09 3.96712E-10 6.96914E-10 3.97786E-10
 -1      1507-2.71945E-10-2.34372E-10 1.88400E-10-5.65225E-10-3.81352E-10-1.79722E-10
 -1      1508-2.39495E-10 6.67849E-12 6.97811E-11-1.63877E-10-2.48280E-10-7.29189E-11
 -1      1509-5.16221E-10 1.56328E-10 6.60503E-11-2.08114E-10-1.51492E-10-1.31741E-10
 -1      1510-5.60470E-10-9.71314E-11 1.03436E-10-5.93532E-10-2.81714E-10-3.59469E-10
 -1      1511 3.50436E-11-1.53158E-11-4.74572E-11-6.00869E-11 1.49157E-11-8.96251E-11
 -1      1512 6.50260E-11-8.82210E-11-1.09544E-10-4.46230E-11-4.01916E-10-1.73343E-10
 -1      1513 7.11286E-11-1.10374E-10 3.94353E-12 9.63118E-12-2.10433E-10-1.29966E-10
 -1      1514-1.10255E-09 4.60436E-10 1.44120E-10-1.71443E-10-1.02255E-10-3.15411E-10
 -1      1515-6.08102E-09-2.00305E-09 9.79621E-09-6.02016E-10 3.28407E-10 1.30423E-08
 -1      1516 3.46439E-10-4.82069E-09 1.00835E-08-2.64393E-10-3.32208E-10 1.72627E-08
 -1      1517 5.71978E-09-6.01099E-09 8.25040E-09-4.16599E-11-2.16380E-10 2.18950E-08
 -1      1518-2.00499E-10-2.44160E-10 4.36603E-11 6.05573E-10 3.19858E-10-3.00007E-10
 -1      1519-1.96134E-10-2.18026E-10 1.60232E-10 5.08822E-10 2.94823E-10-9.29896E-11
 -1      1520-1.18543E-09 6.34160E-10-2.28507E-09-1.19448E-10-5.07292E-10-2.37085E-09
 -1      1521-7.72974E-10 4.29591E-10 1.90885E-10 2.47962E-10 3.89286E-11 1.71509E-10
 -1      1522-6.33977E-10 5.60054E-10 5.08687E-10 3.80922E-10 5.18904E-10 7.66677E-10
 -1      1523-1.22293E-09 4.56549E-10 9.54981E-10 4.20059E-10 5.76951E-10 3.93117E-10
 -1      1524-8.00859E-10 3.73484E-10-2.42326E-09-1.48042E-09-2.19367E-09-2.95628E-09
 -1      1525-9.41308E-10 2.20323E-10-3.98500E-10-7.00388E-10-9.27232E-10-6.62731E-10
 -1      1526-2.38418E-10 5.11186E-11 5.32638E-11-1.10567E-10-1.11964E-10-3.30678E-11
 -1      1527 4.39333E-11-2.88227E-10 4.77262E-11-1.48241E-10-3.42805E-10-9.67022E-11
 -1      1528 3.14944E-09-1.02637E-09-6.49611E-09 9.80349E-10 5.17630E-09-1.54196E-09
 -1      1529-8.44006E-10 4.36923E-10 6.90523E-11 1.84618E-10 7.77592E-11 4.99884E-11
 -1      1530 9.09058E-10 8.19561E-10-7.50001E-09-1.04722E-09-2.18592E-09-2.77824E-09
 -1      1531-2.05532E-11-9.44325E-14-1.48666E-11-5.67203E-12-2.33434E-11-1.24132E-10
 -1      1532-1.94294E-09-2.81197E-09 9.20728E-09-7.62053E-10-1.20048E-09 9.57113E-09
 -1      1533-3.39493E-09-2.15982E-09 9.76048E-09-4.59361E-10-7.45148E-10 8.69168E-09
 -1      1534-1.01349E-09-3.62613E-09 9.53554E-09 6.32117E-11 2.31166E-10 1.11759E-08
 -1      1535-1.15632E-09 7.38486E-10-2.07673E-09-8.33697E-10-1.04535E-09-2.92440E-09
 -1      1536-1.30268E-09 4.76915E-10-2.35482E-10-4.31305E-10-2.48963E-10-6.19440E-10
 -1      1537-1.14977E-09 6.53009E-10-1.82355E-09 8.89848E-10 7.04386E-10-2.62680E-09
 -1      1538 5.47332E-08-1.04774E-08-1.82351E-08-4.83549E-09-7.13728E-10 1.48395E-08
 -1      1539 5.45083E-08-1.10349E-08-1.82773E-08 6.81867E-09 1.44939E-09 1.51114E-08
 -1      1540 2.84751E-09-1.10005E-09-5.88642E-09-1.07551E-09-5.01364E-09-1.57646E-09
 -1      1541-1.77367E-09 4.03159E-09-1.00722E-08-6.68356E-10 3.02903E-09-1.14896E-08
 -1      1542 1.12207E-08-2.09929E-09-5.53004E-09-3.58489E-09 4.53706E-10-1.37141E-09
 -1      1543-1.02227E-08 2.70640E-09 2.70982E-09 4.09154E-09 8.29867E-10-2.10038E-09
 -1      1544-6.47282E-10 2.88373E-10-8.14001E-11 3.49312E-10 5.04281E-10 1.96859E-11
 -1      1545-1.12527E-09 2.83650E-10-8.41432E-10 1.51839E-09 1.02893E-09-1.66895E-09
 -1      1546-6.84923E-10 4.61726E-10 7.66313E-10-4.58027E-10-6.55763E-10 9.80249E-10
 -1      1547-1.02493E-09 4.52924E-10 1.14560E-10-3.81978E-10-1.56045E-10 1.47421E-10
 -1      1548-1.15238E-09 3.39652E-10 1.21464E-09-5.01760E-10-6.18185E-10 6.10790E-10
 -1      1549-1.58936E-09 3.70601E-10 6.22631E-10-1.73060E-10 1.24567E-10-2.34011E-10
 -1      1550-1.04651E-09 6.84760E-10 3.82852E-10 9.03851E-10 3.70245E-10 7.07488E-10
 -1      1551-4.36080E-10 6.56456E-10-4.92830E-11 7.64324E-10 3.80884E-10 5.07109E-10
 -1      1552-5.83268E-10 4.86600E-11 1.41216E-09 8.08473E-10 5.06920E-10 1.83928E-09
 -1      1553-4.58530E-11 1.87990E-11 5.88580E-13 7.27234E-11-7.88844E-12-4.60709E-11
 -1      1554 2.82150E-08-6.86200E-09-1.12375E-08 4.37297E-09 1.34861E-09-1.01025E-10
 -1      1555-6.65836E-10 5.41833E-10 8.58389E-10-6.03967E-10-6.63531E-10 8.61122E-10
 -1      1556-6.67904E-10 1.72999E-10 1.10329E-09-7.49633E-10-3.38994E-10 1.50826E-09
 -1      1557-9.25424E-10 3.21409E-10 7.29431E-10-6.41153E-10-2.91793E-10 9.88402E-10
 -1      1558-6.36369E-10 5.15227E-10 5.27840E-10-5.06834E-10-4.51452E-10 6.16354E-10
 -1      1559-1.61334E-09-3.89446E-09 1.04570E-08-5.47705E-11-6.37062E-11 1.23735E-08
 -1      1560 4.39115E-09-4.40210E-09 6.35187E-09-1.89622E-11-6.33887E-11 1.17831E-08
 -1      1561 4.29942E-09-4.96254E-09 7.35904E-09 1.00157E-10-6.26602E-11 1.32374E-08
 -1      1562-1.29878E-09 3.02375E-10 1.41515E-09-6.08062E-10-1.00702E-09 1.06558E-09
 -1      1563-1.26755E-09 3.69556E-12 2.47568E-09 1.33433E-09 1.86428E-09 1.98402E-09
 -1      1564 1.92209E-08-7.18835E-09-5.09185E-10-1.93909E-10-1.09214E-09 2.69856E-08
 -1      1565 4.16961E-08-1.01442E-08-1.36270E-08-2.41274E-09 1.43779E-10 2.42610E-08
 -1      1566-3.25984E-10 2.23841E-10-6.37383E-12 1.86662E-10-6.19133E-11 1.25188E-10
 -1      1567-1.31820E-10 2.85336E-10 1.90240E-11 2.66939E-10 6.39263E-11 3.52300E-10
 -1      1568 6.45777E-11-9.42691E-11 1.24221E-11 1.34859E-11-2.37201E-10-1.03792E-10
 -1      1569-1.40005E-09-1.44008E-10 2.79565E-09-1.29962E-09-1.86594E-09 2.27624E-09
 -1      1570 9.21555E-11-3.38412E-11-2.30593E-10 1.71943E-11 1.90142E-10-1.02759E-10
 -1      1571-2.79052E-11 1.82714E-11 5.25445E-11-2.13394E-11 7.39520E-11-7.61986E-11
 -1      1572 7.95201E-10-1.37319E-09-3.29685E-10 4.31883E-10 1.12746E-09 2.43350E-10
 -1      1573 3.03984E-11-9.00026E-11-9.45299E-12-5.16070E-11-4.57575E-10-1.65031E-10
 -1      1574-7.81004E-12-6.85065E-11-1.38208E-11-6.89539E-11-4.34579E-10-1.88087E-10
 -1      1575-4.06383E-10 3.39518E-10 3.68475E-10 4.31224E-10 3.06871E-10 5.85622E-10
 -1      1576 2.38380E-08-6.63812E-09-8.29717E-09 6.84475E-09 2.79699E-09 5.61638E-09
 -1      1577-3.19949E-11 2.50297E-11 4.65508E-11 2.49785E-11-7.18160E-11-8.19360E-11
 -1      1578-2.01214E-11 2.93204E-11 2.44924E-11 2.57481E-11-1.05075E-10-8.17555E-11
 -1      1579 8.27998E-10-1.36877E-09-4.04066E-10-3.97642E-10-1.07266E-09 1.52196E-10
 -1      1580-5.03670E-10 2.21670E-10-5.96895E-11 2.61648E-10 3.80005E-10-2.88846E-10
 -1      1581-6.33054E-10 4.04040E-10 4.59594E-11 2.17253E-10-5.05779E-11 1.80602E-10
 -1      1582-1.11104E-08 6.72894E-10 1.00670E-08-7.76779E-10 3.76984E-09-9.18725E-10
 -1      1583 2.16942E-08-5.71223E-09-7.88518E-09-5.59929E-09-7.19070E-10 6.33457E-09
 -1      1584 1.54573E-08-8.19309E-09 3.88906E-09-9.12003E-11-2.55772E-10 1.94367E-08
 -1      1585 5.38150E-09-5.16178E-09 7.58306E-09 1.08691E-11-1.12710E-09 2.27348E-08
 -1      1586-2.78356E-11 6.42567E-12-1.12267E-11 1.31152E-11 1.16539E-11-1.19670E-10
 -1      1587-1.99977E-10 6.44622E-10-5.63327E-12-7.06798E-10-3.54881E-10 6.43969E-10
 -1      1588 1.33168E-09-3.40952E-09 6.99682E-09 4.43600E-11 1.09975E-10 9.22602E-09
 -1      1589-4.60373E-11 1.77061E-11 1.54427E-11 6.40013E-11 7.77595E-12-6.27005E-11
 -1      1590-2.69738E-09-3.65160E-09 1.11600E-08-8.11035E-11-1.00974E-10 1.37859E-08
 -1      1591 1.79348E-08-2.51662E-09-9.59222E-09-4.25141E-09 1.05482E-09-2.07104E-09
 -1      1592 1.92666E-08-2.88966E-09-9.85710E-09-4.51561E-09 7.83679E-10-1.44094E-09
 -1      1593-3.43302E-10 7.60632E-10-1.31311E-10-2.25926E-10-4.17837E-10 8.38871E-11
 -1      1594 8.63640E-11-8.09985E-11-1.50877E-10 4.06162E-11 2.66098E-10-1.19228E-10
 -1      1595-5.18852E-10 5.30667E-10 1.35094E-09-6.32389E-10-1.08460E-09 1.15316E-09
 -1      1596-2.03085E-11 2.67447E-11 3.08236E-11-2.54140E-11 1.04066E-10-7.50691E-11
 -1      1597-2.15643E-10-2.58017E-09 7.46438E-09-7.10103E-10-9.68192E-10 7.86177E-09
 -1      1598-8.48518E-11 2.37362E-10-5.69964E-11 5.05388E-11-2.98179E-10-5.34221E-11
 -1      1599 2.42329E-08-1.06090E-08 4.44360E-10 3.40448E-10-2.89070E-10 2.31798E-08
 -1      1600 2.95292E-08-8.87759E-09-1.08772E-08 2.45146E-09 8.25189E-10-3.38313E-09
 -1      1601 2.88011E-08-7.98001E-09-1.08906E-08 2.07238E-09 1.09469E-09-4.05675E-09
 -1      1602 2.90868E-08-7.75790E-09-1.13545E-08-1.92207E-09-9.95354E-10-5.66009E-09
 -1      1603 2.90755E-08-8.44151E-09-1.15707E-08-2.26063E-09-1.09625E-09-5.48575E-09
 -1      1604 2.84027E-08-7.32668E-09-1.19053E-08-1.04620E-09-2.39936E-10-6.67562E-09
 -1      1605-2.40450E-08 5.35243E-09 7.81803E-09-6.31313E-09-4.35399E-10-3.59174E-09
 -1      1606-2.64494E-08 6.84083E-09 7.53088E-09-8.39292E-09-7.60083E-10 2.24403E-10
 -1      1607-5.52254E-10 6.88497E-10 1.25363E-09 6.74128E-10 1.18095E-09 1.13755E-09
 -1      1608 8.30710E-09-6.25709E-09 6.63795E-09 1.32881E-10 4.25269E-11 1.68074E-08
 -1      1609-4.51410E-10 8.67028E-10-1.02568E-10 1.30693E-10 4.47158E-10 1.94729E-11
 -1      1610 2.74494E-08-8.34566E-09-9.92415E-09 1.26080E-09 4.57112E-10-4.59555E-09
 -1      1611 2.67133E-08-7.64916E-09-1.07386E-08-1.33352E-09-9.73325E-10-6.56970E-09
 -1      1612 2.67489E-08-6.81474E-09-1.13790E-08-4.89836E-11-6.40741E-12-7.69644E-09
 -1      1613 2.56106E-08-8.10388E-09-9.17164E-09-4.42562E-10-2.87508E-09 5.66400E-09
 -1      1614 2.90300E-08-7.87087E-09-1.16869E-08-2.97969E-10-5.23896E-10 2.59664E-09
 -1      1615 1.99538E-08-4.70104E-09-7.44412E-09 4.86366E-09 1.72771E-09 4.65719E-09
 -1      1616 3.32981E-11-9.07608E-12-1.83036E-10-3.27167E-11-3.44620E-10-1.95550E-10
 -1      1617 2.29428E-08-1.04510E-08 1.18255E-09-3.01288E-10-1.24373E-09 2.44333E-08
 -1      1618-5.20737E-11 2.13848E-10-7.12051E-11 5.31805E-11-9.28653E-11 2.03068E-12
 -1      1619-2.36007E-08 5.73518E-09 7.78657E-09 9.25051E-09 2.20774E-09-1.38478E-09
 -1      1620-4.92338E-11 1.95732E-10-5.50892E-11 4.22235E-11-1.01405E-10 1.40034E-12
 -1      1621 6.15279E-08-1.58477E-08-1.74802E-08 2.44442E-09 3.72144E-10 2.19422E-08
 -1      1622-3.48894E-11 1.61613E-10-2.92273E-11 1.03913E-11-2.35436E-10-4.58065E-11
 -1      1623-2.77754E-08 8.61361E-09 7.77576E-09-8.87704E-10 3.04577E-10-1.44273E-08
 -1      1624-2.57781E-08 8.05584E-09 5.72529E-09-3.90275E-10 1.10843E-09-1.38512E-08
 -1      1625 2.59123E-08-6.33755E-09-1.17438E-08-1.02247E-09-5.50836E-10-6.79794E-09
 -1      1626 1.77385E-08-3.00530E-09-9.72110E-09-1.68886E-09-4.22701E-10-8.15621E-09
 -1      1627 1.72840E-08-2.50310E-09-9.09222E-09-2.09780E-09-1.39467E-10-8.65903E-09
 -1      1628 1.80647E-08-2.86089E-09-1.12714E-08-1.51108E-09-1.96622E-10-6.81039E-09
 -1      1629-2.90001E-11 1.17037E-10-3.61485E-11 6.86387E-11-1.45348E-10-3.46235E-11
 -1      1630-2.68155E-11 1.80034E-10-4.49342E-11 1.01190E-10-1.59666E-10-3.18352E-11
 -1      1631 9.53438E-11-2.37920E-10-7.66591E-12-8.75362E-11-3.08955E-10-6.83040E-11
 -1      1632-9.83897E-09 2.51239E-09 3.55777E-09-1.37541E-09-1.30962E-09-8.51897E-09
 -1      1633-1.64105E-08 3.00766E-09 3.67009E-09-4.52688E-09-4.56891E-10-1.31552E-08
 -1      1634-1.63346E-08 3.90545E-09 2.55432E-09-4.38978E-09-6.26962E-10-1.26972E-08
 -1      1635-8.11083E-09 1.81256E-09 7.18086E-10-1.72228E-09-1.44002E-09-8.05588E-09
 -1      1636-7.77115E-09 2.22727E-09 1.58592E-09-1.01699E-09-1.58022E-09-8.12042E-09
 -1      1637 1.60463E-08-3.33328E-09-8.60616E-09 4.15115E-09-1.13287E-09-9.88689E-10
 -1      1638 1.70198E-08-3.61033E-09-8.16360E-09 4.36879E-09-7.32305E-10 9.87551E-11
 -1      1639 2.94371E-08-7.37118E-09-1.21394E-08-1.64436E-09-1.13811E-09-2.60033E-09
 -1      1640-3.49537E-11 1.84707E-11 4.38503E-12 6.07938E-11-1.96191E-11-6.94945E-11
 -1      1641-2.46281E-11-1.22059E-12-2.77151E-13 5.49958E-12-7.32108E-12-1.56353E-10
 -1      1642-1.92132E-08 4.57326E-09 6.69570E-09-5.49247E-09-3.45923E-10-4.91730E-09
 -1      1643-1.79389E-08 4.64523E-09 6.00774E-09-4.91438E-09-9.52826E-10-4.82105E-09
 -1      1644-1.20594E-09 1.28745E-10 2.16161E-09 7.21465E-10 7.48021E-10 1.44283E-09
 -1      1645-7.64052E-10-1.21229E-11 2.27756E-09-6.78879E-10-6.99722E-10 1.68076E-09
 -1      1646 1.54909E-08-3.19145E-09-8.72926E-09 3.99482E-09-1.31450E-09-1.46078E-09
 -1      1647-2.12597E-10-2.50991E-10 1.61731E-10 4.01841E-10 1.75731E-10-3.18338E-11
 -1      1648-6.26209E-10 5.50659E-10 7.63967E-11-3.02200E-10-1.06897E-10 8.72380E-11
 -1      1649-2.28893E-11 6.29672E-11-1.94952E-11 3.23821E-11-1.31138E-10-4.50577E-11
 -1      1650-1.98890E-11 5.26935E-11-1.28196E-11-3.36289E-11 1.29011E-10-4.35525E-11
 -1      1651 6.21122E-11-1.39348E-10 1.38982E-11-8.13399E-12-2.97114E-10-9.28693E-11
 -1      1652-2.05241E-09 1.55143E-09-1.77336E-09 6.90714E-10 1.55820E-09-7.96163E-09
 -1      1653-2.59094E-09 1.89271E-09-2.50140E-09 2.71635E-10 1.18420E-09-8.12088E-09
 -1      1654 8.30105E-11-1.29460E-10-1.94368E-11 2.95305E-11 3.04194E-10-7.08849E-11
 -3
 9999
